 vasp.5.4.4.18Apr17-6-g9f103f2a35 (build Dec 21 2018 14:18:36) complex

 executed on             LinuxIFC date 2022.03.31  16:45:30

 INCAR:
 POTCAR:  PAW_PBE Al 04Jan2001
 POTCAR:   PAW_PBE Cu 22Jun2005
 POTCAR:   PAW_PBE O 08Apr2002
 POTCAR:   PAW_PBE Si 05Jan2001

 POTCAR:  PAW_PBE Al 04Jan2001
   VRHFIN =Al: s2p1

   TITEL  = PAW_PBE Al 04Jan2001
   POMASS =   26.982; ZVAL   =    3.000    mass and valenz
   ENMAX  =  240.300; ENMIN  =  180.225 eV
   QCUT   =   -4.203; QGAM   =    8.405    optimization parameters

   Description
     l     E      TYP  RCUT    TYP  RCUT
     0   .000     23  1.900
     0   .000     23  1.900
     1   .000     23  1.900
     1  1.000     23  1.900
     2   .000      7  1.900

 POTCAR:   PAW_PBE Cu 22Jun2005
   VRHFIN =Cu: d10 p1

   TITEL  = PAW_PBE Cu 22Jun2005
   POMASS =   63.546; ZVAL   =   11.000    mass and valenz
   ENMAX  =  295.446; ENMIN  =  221.585 eV

 POTCAR:   PAW_PBE O 08Apr2002
   VRHFIN =O: s2p4

   TITEL  = PAW_PBE O 08Apr2002
   POMASS =   16.000; ZVAL   =    6.000    mass and valenz
   ENMAX  =  400.000; ENMIN  =  300.000 eV
   QCUT   =   -5.520; QGAM   =   11.041    optimization parameters

[...]

 POTCAR:   PAW_PBE Si 05Jan2001
   VRHFIN =Si: s2p2

   TITEL  = PAW_PBE Si 05Jan2001
   POMASS =   28.085; ZVAL   =    4.000    mass and valenz
   ENMAX  =  245.345; ENMIN  =  184.009 eV
   QCUT   =   -4.246; QGAM   =    8.493    optimization parameters

   Description
     l     E      TYP  RCUT    TYP  RCUT
     0   .000     23  1.900
     0   .000     23  1.900
     1   .000     23  1.900
     1   .000     23  1.900
     2   .000      7  1.900

 Optimization of the real space projectors (new method)

 maximal supplied QI-value         = 19.84
 optimisation between [QCUT,QGAM] = [ 10.12, 20.44] = [ 28.68,116.96] Ry
 Optimized for a Real-space Cutoff    1.26 Angstroem

   l    n(q)    QCUT    max X(q) W(low)/X(q) W(high)/X(q)  e(spline)
   0      8    10.119    13.410    0.28E-04    0.17E-04    0.51E-08
   0      8    10.119   140.052    0.10E-03    0.16E-03    0.42E-07
   1      7    10.119     9.624    0.38E-04    0.42E-05    0.15E-07
   1      7    10.119    53.353    0.23E-03    0.17E-03    0.13E-06
 Optimization of the real space projectors (new method)

[...]

   l    n(q)    QCUT    max X(q) W(low)/X(q) W(high)/X(q)  e(spline)
   0      9    10.150     4.192    0.32E-04    0.13E-04    0.13E-06
   0      9    10.150     8.473    0.18E-03    0.20E-03    0.43E-06
   1      9    10.150     2.474    0.32E-04    0.33E-04    0.64E-07
   1      9    10.150     3.912    0.13E-03    0.16E-03    0.33E-06
 Optimization of the real space projectors (new method)

 maximal supplied QI-value         = 19.84
 optimisation between [QCUT,QGAM] = [ 10.12, 20.44] = [ 28.68,116.96] Ry
 Optimized for a Real-space Cutoff    1.38 Angstroem

   l    n(q)    QCUT    max X(q) W(low)/X(q) W(high)/X(q)  e(spline)
   0      8    10.119     8.708    0.16E-04    0.67E-05    0.60E-08
   0      8    10.119   106.241    0.56E-04    0.11E-03    0.54E-07
   1      8    10.119     5.901    0.16E-04    0.16E-05    0.22E-07
   1      8    10.119    73.241    0.22E-03    0.17E-03    0.18E-06
PAW_PBE Al 04Jan2001                    :
 PAW_PBE Cu 22Jun2005                   :
 PAW_PBE O 08Apr2002                    :
 PAW_PBE Si 05Jan2001                   :

 POSCAR: Al Cu O Si
  positions in direct lattice
 exchange correlation table for  LEXCH =        8
   RHO(1)=    0.500       N(1)  =     2000
   RHO(2)=  100.500       N(2)  =     4000

 ion  position               nearest neighbor table
   1  0.651  0.743  0.593-  11 1.61  10 1.61   7 1.61   5 1.61   3 3.04   2 3.10  14 3.15  14 3.15
                            15 3.22
   2  0.651  0.058  0.907-  12 1.61   8 1.61   9 1.61   5 1.61   4 2.80   1 3.10  15 3.15  15 3.15
                            14 3.22
   3  0.225  0.565  0.953-  13 1.90   7 2.04  14 2.53   4 2.59   1 3.04
   4  0.482  0.340  0.987-  13 1.78   3 2.59   2 2.80
   5  0.602  0.852  0.750-   2 1.61   1 1.61
   6  0.398  0.148  0.250-  14 1.61  15 1.61
   7  0.500  0.810  0.310-   1 1.61  14 1.61   3 2.04
   8  0.000  0.190  0.190-  15 1.61   2 1.61
   9  0.500  0.190  0.690-  15 1.61   2 1.61
  10  0.000  0.810  0.810-   1 1.61  14 1.61
  11  0.500  0.500  0.500-   1 1.61  15 1.61
  12  0.500  0.000  0.000-   2 1.61  14 1.61
  13  0.123  0.345  0.697-   4 1.78   3 1.90
  14  0.349  0.942  0.093-  12 1.61  10 1.61   7 1.61   6 1.61   3 2.53  15 3.10   1 3.15   1 3.15
                             2 3.22
  15  0.349  0.257  0.407-  11 1.61   8 1.61   9 1.61   6 1.61  14 3.10   2 3.15   2 3.15   1 3.22

IMPORTANT INFORMATION: All symmetrisations will be switched off!
NOSYMM: (Re-)initialisation of all symmetry stuff for point group C_1.

 KPOINTS: Automatic

Automatic generation of k-mesh.
Space group operators:
 irot       det(A)        alpha          n_x          n_y          n_z        tau_x        tau_y        tau_z
    1     1.000000     0.000001     1.000000     0.000000     0.000000     0.000000     0.000000     0.000000

 Subroutine IBZKPT returns following result:

 Found      1 irreducible k-points:

 Following reciprocal coordinates:
            Coordinates               Weight
  0.000000  0.000000  0.000000      1.000000

 Following cartesian coordinates:
            Coordinates               Weight
  0.000000  0.000000  0.000000      1.000000

 SYSTEM =  ZEOLITE_ABW_energy
 POSCAR =  Al Cu O Si

 Startparameter for this run:
   NWRITE =      2    write-flag & timer
   PREC   = accura    normal or accurate (medium, high low for compatibility)
   ISTART =      0    job   : 0-new  1-cont  2-samecut
   ICHARG =      2    charge: 1-file 2-atom 10-const
   ISPIN  =      1    spin polarized calculation?
   LNONCOLLINEAR =      F non collinear calculations
   LSORBIT =      F    spin-orbit coupling
   INIWAV =      1    electr: 0-lowe 1-rand  2-diag
   LASPH  =      F    aspherical Exc in radial PAW
   METAGGA=      F    non-selfconsistent MetaGGA calc.

 Electronic Relaxation 1
   ENCUT  =  400.0 eV  29.40 Ry    5.42 a.u.  11.59 11.59 11.59*2*pi/ulx,y,z
   ENINI  =  400.0     initial cutoff
   ENAUG  =  605.4 eV  augmentation charge cutoff
   NELM   =    100;   NELMIN=  5; NELMDL=-12     # of ELM steps
   EDIFF  = 0.1E-05   stopping-criterion for ELM
   LREAL  =      T    real-space projection
   NLSPLINE    = F    spline interpolate recip. space projectors
   LCOMPAT=      F    compatible to vasp.4.4
   GGA_COMPAT  = T    GGA compatible to vasp.4.4-vasp.4.6
   LMAXPAW     = -100 max onsite density
   LMAXMIX     =    2 max onsite mixed and CHGCAR
   VOSKOWN=      0    Vosko Wilk Nusair interpolation
   ROPT   =   -0.00025  -0.00025  -0.00025  -0.00025
 Ionic relaxation
   EDIFFG = -.5E-02   stopping-criterion for IOM
   NSW    =      0    number of steps for IOM
   NBLOCK =      1;   KBLOCK =      1    inner block; outer block
   IBRION =     -1    ionic relax: 0-MD 1-quasi-New 2-CG
   NFREE  =      2    steps in history (QN), initial steepest desc. (CG)
   ISIF   =      2    stress and relaxation
   IWAVPR =     10    prediction:  0-non 1-charg 2-wave 3-comb
   ISYM   =      0    0-nonsym 1-usesym 2-fastsym
   LCORR  =      T    Harris-Foulkes like correction to forces

   POTIM  = 0.0150    time-step for ionic-motion
   TEIN   =    0.0    initial temperature
   TEBEG  =    0.0;   TEEND  =   0.0 temperature during run
   SMASS  =  -3.00    Nose mass-parameter (am)
   estimated Nose-frequenzy (Omega)   =  0.10E-29 period in steps =****** mass=  -0.115E-26a.u.
   SCALEE = 1.0000    scale energy and forces
   NPACO  =    256;   APACO  = 16.0  distance and # of slots for P.C.
   PSTRESS=    0.0 pullay stress

  Mass of Ions in am
   POMASS =  26.98 63.55 16.00 28.09
  Ionic Valenz
   ZVAL   =   3.00 11.00  6.00  4.00
  Atomic Wigner-Seitz radii
  virtual crystal weights
   VCA    =   1.00  1.00  1.00  1.00
   NELECT =      90.0000    total number of electrons
   NUPDOWN=      -1.0000    fix difference up-down

 DOS related values:
   EMIN   =  10.00;   EMAX   =-10.00  energy-range for DOS
   EFERMI =   0.00
   ISMEAR =     0;   SIGMA  =   0.20  broadening in eV -4-tet -1-fermi 0-gaus

 Electronic relaxation 2 (details)
   IALGO  =     48    algorithm
   LDIAG  =      T    sub-space diagonalisation (order eigenvalues)
   LSUBROT=      F    optimize rotation matrix (better conditioning)
   TURBO    =      0    0=normal 1=particle mesh
   IRESTART =      0    0=no restart 2=restart with 2 vectors
   NREBOOT  =      0    no. of reboots
   NMIN     =      0    reboot dimension
   EREF     =   0.00    reference energy to select bands
   IMIX   =      4    mixing-type and parameters
     AMIX     =   0.40;   BMIX     =  1.00
     AMIX_MAG =   1.60;   BMIX_MAG =  1.00
     AMIN     =   0.10
     WC   =   100.;   INIMIX=   1;  MIXPRE=   1;  MAXMIX= -45

 Intra band minimization:
   WEIMIN = 0.0000     energy-eigenvalue tresh-hold
   EBREAK =  0.46E-08  absolut break condition
   DEPER  =   0.30     relativ break condition

   TIME   =   0.40     timestep for ELM

  volume/ion in A,a.u.               =      15.16       102.33
  Fermi-wavevector in a.u.,A,eV,Ry     =   1.201857  2.271180 19.653069  1.444460
  Thomas-Fermi vector in A             =   2.337654

 Write flags
   LWAVE        =      F    write WAVECAR
   LDOWNSAMPLE  =      F    k-point downsampling of WAVECAR
   LCHARG       =      F    write CHGCAR
   LVTOT        =      F    write LOCPOT, total local potential
   LVHAR        =      F    write LOCPOT, Hartree potential only
   LELF         =      F    write electronic localiz. function (ELF)
   LORBIT       =      0    0 simple, 1 ext, 2 COOP (PROOUT), +10 PAW based schemes

 Dipole corrections
   LMONO  =      F    monopole corrections only (constant potential shift)
   LDIPOL =      F    correct potential (dipole corrections)
   IDIPOL =      0    1-x, 2-y, 3-z, 4-all directions
   EPSILON=  1.0000000 bulk dielectric constant

 Exchange correlation treatment:
   GGA     =    PE    GGA type
   VOSKOWN=      0    Vosko Wilk Nusair interpolation
   LHFCALC =     F    Hartree Fock is set to
   LHFONE  =     F    Hartree Fock one center treatment
   AEXX    =    0.0000 exact exchange contribution

 Linear response parameters
   LEPSILON=     F    determine dielectric tensor
   LRPA    =     F    only Hartree local field effects (RPA)
   LNABLA  =     F    use nabla operator in PAW spheres
   LVEL    =     F    velocity operator in full k-point grid
   LINTERFAST=   F  fast interpolation
   KINTER  =     0    interpolate to denser k-point grid
   CSHIFT  =0.1000    complex shift for real part using Kramers Kronig
   OMEGAMAX=  -1.0    maximum frequency
   DEG_THRESHOLD= 0.2000000E-02 threshold for treating states as degnerate
   RTIME   =   -0.100 relaxation time in fs
  (WPLASMAI=    0.000 imaginary part of plasma frequency in eV, 0.658/RTIME)
   DFIELD  = 0.0000000 0.0000000 0.0000000 field for delta impulse in time

 Orbital magnetization related:
   ORBITALMAG=     F  switch on orbital magnetization
   LCHIMAG   =     F  perturbation theory with respect to B field
   DQ        =  0.001000  dq finite difference perturbation B field
   LLRAUG    =     F  two centre corrections for induced B field

 Static calculation
 charge density and potential will be updated during run
 non-spin polarized calculation
 RMM-DIIS sequential band-by-band
 perform sub-space diagonalisation
    before iterative eigenvector-optimisation
 modified Broyden-mixing scheme, WC =      100.0
 initial mixing is a Kerker type mixing with AMIX =  0.4000 and BMIX =      1.0000
 Hartree-type preconditioning will be used
 using additional bands            9
 real space projection scheme for non local part
 use partial core corrections
 calculate Harris-corrections to forces
   (improved forces if not selfconsistent)
 use gradient corrections
 use of overlap-Matrix (Vanderbilt PP)
 Gauss-broadening in eV      SIGMA  =   0.20

  energy-cutoff  :      400.00
  volume of cell :      227.46
      direct lattice vectors                 reciprocal lattice vectors
    -4.936500000  2.627000000  4.385000000     0.000000000  0.190331176  0.114025086
     4.936500000 -2.627000000  4.385000000     0.101286336  0.000000000  0.114025086
     4.936500000  2.627000000 -4.385000000     0.101286336  0.190331176  0.000000000

  length of vectors
     7.106221658  7.106221658  7.106221658     0.221873110  0.152514400  0.215603522

 k-points in units of 2pi/SCALE and weight: Automatic
   0.00000000  0.00000000  0.00000000       1.000

 k-points in reciprocal lattice and weights: Automatic
   0.00000000  0.00000000  0.00000000       1.000

 position of ions in fractional coordinates (direct lattice)
   0.65070000  0.74350000  0.59280000
   0.65070000  0.05790000  0.90720000
   0.22523960  0.56456802  0.95263490
   0.48163061  0.34024143  0.98656296
   0.60230000  0.85230000  0.75000000
   0.39770000  0.14770000  0.25000000
   0.50000000  0.81000000  0.31000000
   0.00000000  0.19000000  0.19000000
   0.50000000  0.19000000  0.69000000
   0.00000000  0.81000000  0.81000000
   0.50000000  0.50000000  0.50000000
   0.50000000  0.00000000  0.00000000
   0.12316460  0.34546112  0.69742532
   0.34930000  0.94210000  0.09280000
   0.34930000  0.25650000  0.40720000

 position of ions in cartesian coordinates  (Angst):
   3.38446440  1.31350000  3.51413900
   1.55203560  3.94050000 -0.87086100
   6.37777695  1.61115614 -0.71399765
   4.17220040  2.96313028 -0.72216969
   4.93650000  1.31350000  3.08967100
   0.00000000  1.31350000  1.29532900
   3.06063000 -0.00000000  4.38500000
   1.87587000  0.00000000  0.00000000
   1.87587000  2.62700000  0.00000000
   7.99713000  0.00000000  0.00000000
   2.46825000  1.31350000  2.19250000
  -2.46825000  1.31350000  2.19250000
   4.54020690  1.24816335 -1.00328628
   3.38446440 -1.31350000  5.25586100
   1.55203560  1.31350000  0.87086100

 k-point  1 :   0.0000 0.0000 0.0000  plane waves:    4159

 maximum and minimum number of plane-waves per node :       348      345

 maximum number of plane-waves:      4159
 maximum index in each direction:
   IXMAX=   11   IYMAX=   11   IZMAX=   11
   IXMIN=  -11   IYMIN=  -11   IZMIN=  -11

 real space projection operators:
  max/ min on nodes  :        610.31        572.45

 parallel 3D FFT for wavefunctions:
    minimum data exchange during FFTs selected (reduces bandwidth)
 parallel 3D FFT for charge:
    minimum data exchange during FFTs selected (reduces bandwidth)

 Broyden mixing: mesh for mixing (old mesh)
   NGX = 23   NGY = 23   NGZ = 23
  (NGX  = 96   NGY  = 96   NGZ  = 96)
  gives a total of  12167 points

 initial charge density was supplied:
 charge density of overlapping atoms calculated
 number of electron      90.0000000 magnetization
 keeping initial charge density in first step

 Maximum index for non-local projection operator          649
 Maximum index for augmentation-charges         1508 (set IRDMAX)

 First call to EWALD:  gamma=   0.290
 Maximum number of real-space cells 4x 3x 3
 Maximum number of reciprocal cells 3x 3x 3

--------------------------------------- Iteration      1(   1)  ---------------------------------------

 eigenvalue-minimisations  :    54
 total energy-change (2. order) : 0.1060496E+04  (-0.3205008E+04)
 number of electron      90.0000000 magnetization
 augmentation part       90.0000000 magnetization

 Free energy of the ion-electron system (eV)
  alpha Z        PSCENC =       140.84291014
  Ewald energy   TEWEN  =     -3681.56512662
  -Hartree energ DENC   =     -3045.43630961
  -exchange      EXHF   =         0.00000000
  -V(xc)+E(xc)   XCENC  =       270.88059376
  PAW double counting   =      4807.46266127    -4936.69622133
  entropy T*S    EENTRO =        -0.32122795
  eigenvalues    EBANDS =       519.83654146
  atomic energy  EATOM  =      6985.49184582
  Solvation  Ediel_sol  =         0.00000000
  free energy    TOTEN  =      1060.49566694 eV

  energy without entropy =     1060.81689489  energy(sigma->0) =     1060.65628091

[...]

 eigenvalue-minimisations  :    54
 total energy-change (2. order) :-0.7152093E+03  (-0.9010532E+03)
 number of electron      90.0000000 magnetization
 augmentation part       90.0000000 magnetization

[...]

 Broyden mixing:
  rms(total) = 0.33253E+01    rms(broyden)= 0.33224E+01
  rms(prec ) = 0.58248E+01
  weight for this iteration     100.00

[...]

 eigenvalues of (default mixing * dielectric matrix)
  average eigenvalue GAMMA=   0.5663
  0.5663

[...]

 eigenvalue-minimisations  :    81
 total energy-change (2. order) : 0.5245853E-05  (-0.2182264E-06)
 number of electron      90.0000003 magnetization
 augmentation part       19.8047317 magnetization

 Broyden mixing:
  rms(total) = 0.62179E-03    rms(broyden)= 0.60992E-03
  rms(prec ) = 0.12417E-02
  weight for this iteration     100.00

 eigenvalues of (default mixing * dielectric matrix)
  average eigenvalue GAMMA=   1.0839
  3.3180  2.6641  1.9113  1.9113  1.2574  1.2574  0.9907  0.9907  0.9278  0.8432
  0.6605  0.6605  0.3931  0.3931  0.4772  0.4772  0.1817  0.1942

[...]

--------------------------------------- Iteration      1(  31)  ---------------------------------------

 eigenvalue-minimisations  :    75
 total energy-change (2. order) :-0.6411519E-06  (-0.6646596E-07)
 number of electron      90.0000003 magnetization
 augmentation part       19.8047317 magnetization

 Free energy of the ion-electron system (eV)
  alpha Z        PSCENC =       140.84291014
  Ewald energy   TEWEN  =     -3681.56512662
  -Hartree energ DENC   =     -3217.21805171
  -exchange      EXHF   =         0.00000000
  -V(xc)+E(xc)   XCENC  =       283.38508423
  PAW double counting   =      5540.23999608    -5676.36136098
  entropy T*S    EENTRO =        -0.26227300
  eigenvalues    EBANDS =      -471.13651303
  atomic energy  EATOM  =      6985.49184582
  Solvation  Ediel_sol  =         0.00000000
  free energy    TOTEN  =       -96.58348908 eV

  energy without entropy =      -96.32121608  energy(sigma->0) =      -96.45235258

 average (electrostatic) potential at core
  the test charge radii are     1.0406  0.9430  0.7215  0.9892
  (the norm of the test charge is              1.0000)
       1 -75.7008       2 -75.4302       3 -69.8600       4 -69.8672       5 -71.8745
       6 -74.1788       7 -74.2708       8 -72.6833       9 -73.4060      10 -73.6233
      11 -72.8478      12 -73.6170      13 -73.8924      14 -87.8106      15 -87.2038

 E-fermi :   0.6573     XC(G=0):  -8.3600     alpha+bet : -8.6242

 k-point     1 :       0.0000    0.0000    0.0000
  band No.  band energies     occupation
      1     -19.2562      2.00000
      2     -18.3436      2.00000
      3     -17.6335      2.00000
      4     -17.5337      2.00000
      5     -17.3231      2.00000
      6     -16.6937      2.00000
      7     -16.3918      2.00000
      8     -16.1468      2.00000
      9     -15.5091      2.00000
     10      -7.9070      2.00000
     11      -7.3982      2.00000
     12      -6.1569      2.00000
     13      -5.0226      2.00000
     14      -4.9119      2.00000
     15      -4.6787      2.00000
     16      -4.0551      2.00000
     17      -4.0119      2.00000
     18      -3.4556      2.00000
     19      -3.2595      2.00000
     20      -3.0486      2.00000
     21      -2.9694      2.00000
     22      -2.5649      2.00000
     23      -2.4780      2.00000
     24      -2.2805      2.00000
     25      -2.1599      2.00000
     26      -1.9591      2.00000
     27      -1.8495      2.00000
     28      -1.7338      2.00000
     29      -1.4431      2.00000
     30      -1.3913      2.00000
     31      -1.2132      2.00000
     32      -1.1064      2.00000
     33      -1.0191      2.00000
     34      -0.8834      2.00000
     35      -0.8275      2.00000
     36      -0.6924      2.00000
     37      -0.5551      2.00000
     38      -0.4674      2.00000
     39      -0.4466      2.00000
     40      -0.3689      2.00000
     41       0.0834      1.99995
     42       0.0944      1.99993
     43       0.2800      1.99238
     44       0.4891      1.76581
     45       0.5729      1.44976
     46       0.6946      0.79217
     47       3.0112      0.00000
     48       5.4963      0.00000
     49       7.1513      0.00000
     50       7.3329      0.00000
     51       7.8607      0.00000
     52       8.3456      0.00000
     53       9.2663      0.00000
     54       9.6529      0.00000

 soft charge-density along one line, spin component           1
         0         1         2         3         4         5         6         7         8         9
 total charge-density along one line

------------------------ aborting loop because EDIFF is reached ----------------------------------------

  DFT-D2 method for vdW energy calculation

  Parameters of vdW forcefield:
         C6(Jnm^6/mol)     R0(A)
   Al      10.790          1.639
   Cu      10.800          1.562
   O        0.700          1.342
   Si       9.230          1.716

  IVDW =   1
  VDW_RADIUS =    50.000 A
  VDW_S6 =     0.750
  VDW_SR =     1.000
  VDW_D =    20.000
  LVDW_EWALD = F

  Number of pair interactions contributing to vdW energy:  275943
  Edisp (eV):   -1.69895

  FORCE on cell =-STRESS in cart. coord.  units (eV):
  Direction    XX          YY          ZZ          XY          YZ          ZX
  Alpha Z   140.84291   140.84291   140.84291
  Ewald    -623.17973 -1242.41153 -1815.98378  -182.10664  -252.98539   250.14429
  Hartree  1484.97262  1061.30409   670.93216  -125.51329  -200.06690   156.69476
  E(xc)    -451.25862  -452.06319  -452.46634    -0.06671    -0.09097     0.27522
  Local   -2088.50524 -1054.31978  -105.83577   302.85746   452.38413  -399.01144
  n-local  -160.53053  -161.11371  -164.26849     0.44911     1.00611     1.51358
  augment   236.51163   236.59477   245.01925     0.76215    -1.34325    -2.02085
  Kinetic  1475.73259  1494.16936  1498.78940     2.73071     0.13203    -7.63604
  Fock        0.00000     0.00000     0.00000     0.00000     0.00000     0.00000
  vdW        -1.24442    -1.42210    -1.38787     0.02894    -0.11020     0.12599
  Total      13.34121    21.58083    15.64147    -0.85828    -1.07445     0.08553
  in kB      93.97169   152.00918   110.17408    -6.04545    -7.56814     0.60241

 VOLUME and BASIS-vectors are now :
  energy-cutoff  :      400.00
  volume of cell :      227.46
      direct lattice vectors                 reciprocal lattice vectors
    -4.936500000  2.627000000  4.385000000     0.000000000  0.190331176  0.114025086
     4.936500000 -2.627000000  4.385000000     0.101286336  0.000000000  0.114025086
     4.936500000  2.627000000 -4.385000000     0.101286336  0.190331176  0.000000000

  length of vectors
     7.106221658  7.106221658  7.106221658     0.221873110  0.152514400  0.215603522

 FORCES acting on ions
    electron-ion (+dipol)            ewald-force                    non-local-force                 convergence-correction
   -.183E+02 -.748E+01 0.159E+02   0.218E+02 0.827E+01 -.189E+02   -.262E+01 -.232E+00 0.157E+01   0.570E-03 -.298E-04 -.768E-04
   0.251E+02 -.962E+01 0.157E+02   -.290E+02 0.106E+02 -.161E+02   0.242E+01 -.208E+00 0.286E+00   -.108E-02 -.225E-03 -.513E-03
   -.293E+02 0.848E+02 0.253E+02   0.197E+02 -.841E+02 -.259E+02   0.812E+01 -.643E+00 0.585E+00   0.772E-02 0.195E-02 0.251E-02
   0.129E+01 -.244E+03 -.226E+03   0.821E+00 0.229E+03 0.223E+03   -.288E+01 0.154E+02 0.206E+01   0.250E-03 0.651E-02 0.188E-02
   -.399E+01 0.130E+01 0.125E+03   0.426E+01 -.987E+00 -.139E+03   -.339E+00 -.413E+00 0.122E+02   -.550E-03 -.228E-03 -.244E-03
   -.234E+02 -.315E+02 -.842E+01   0.242E+02 0.318E+02 0.242E+02   -.128E+01 -.787E-01 -.151E+02   -.752E-03 -.976E-04 -.958E-03
   -.536E+02 -.100E+03 -.299E+02   0.512E+02 0.111E+03 0.302E+02   0.395E+00 -.154E+02 0.140E+01   -.459E-03 -.354E-03 -.141E-02
   -.525E+02 0.114E+02 0.269E+02   0.635E+02 -.168E+02 -.312E+02   -.102E+02 0.879E+01 0.664E+01   -.176E-02 -.130E-02 -.561E-03
   0.164E+02 -.762E+01 -.535E+00   -.963E+01 0.127E+02 -.298E+01   -.500E+01 -.820E+01 0.543E+01   -.132E-02 0.115E-02 -.831E-03
   0.157E+02 0.842E+02 0.504E+01   -.233E+02 -.925E+02 -.733E+01   0.599E+01 0.130E+02 0.427E+01   0.979E-04 0.245E-03 -.111E-02
   -.776E+02 -.181E+02 0.145E+02   0.835E+02 0.186E+02 -.103E+02   -.907E+01 -.562E+00 -.730E+01   0.137E-02 -.326E-04 0.186E-02
   0.109E+03 -.334E+02 0.119E+01   -.118E+03 0.348E+02 0.256E+01   0.119E+02 -.176E+01 -.691E+01   -.152E-02 -.388E-03 -.831E-03
   0.106E+03 0.241E+03 0.167E+02   -.121E+03 -.264E+03 -.229E+02   0.162E+02 0.231E+02 0.634E+01   0.194E-02 0.213E-02 0.551E-03
   -.123E+02 -.327E+01 -.781E+01   0.118E+02 0.210E+01 0.872E+01   0.927E+00 0.562E+00 0.171E+00   -.485E-03 -.743E-04 -.105E-02
   -.166E+02 -.110E+01 0.148E+02   0.194E+02 -.355E+00 -.147E+02   -.961E+00 0.652E+00 -.191E+00   -.441E-03 0.264E-03 0.343E-03
   -.137E+02 -.340E+02 -.114E+02   0.711E-14 0.769E-13 0.586E-13   0.137E+02 0.340E+02 0.114E+02   0.359E-02 0.951E-02 -.456E-03

 POSITION                                       TOTAL-FORCE (eV/Angst)
      3.38446      1.31350      3.51414         0.893272      0.645886     -1.411787
      1.55204      3.94050     -0.87086        -1.561650      0.776234     -0.119568
      6.37778      1.61116     -0.71400        -1.552824     -0.119281     -0.025370
      4.17220      2.96313     -0.72217        -0.689443     -0.336922     -0.260395
      4.93650      1.31350      3.08967        -0.065795     -0.100054     -1.520005
      0.00000      1.31350      1.29533        -0.476928      0.157459      0.609667
      3.06063     -0.00000      4.38500        -2.066040     -4.508023      1.634393
      1.87587      0.00000      0.00000         0.804781      3.411726      2.342931
      1.87587      2.62700      0.00000         1.768328     -3.102870      1.918430
      7.99713      0.00000      0.00000        -1.612925      4.612838      1.994369
      2.46825      1.31350      2.19250        -3.119804     -0.069609     -3.198337
     -2.46825      1.31350      2.19250         3.652091     -0.281255     -3.173388
      4.54021      1.24816     -1.00329         1.760836      0.317897      0.141046
      3.38446     -1.31350      5.25586         0.452070     -0.595438      1.040987
      1.55204      1.31350      0.87086         1.814033     -0.808587      0.027028
    total drift:                               -0.001889      0.000346      0.004621

  FREE ENERGIE OF THE ION-ELECTRON SYSTEM (eV)
  free  energy   TOTEN  =       -98.28244042 eV

  energy  without entropy=      -98.02016742  energy(sigma->0) =      -98.15130392