 vasp.5.4.4.18Apr17-6-g9f103f2a35 (build Dec 21 2018 14:18:36) complex

 executed on             LinuxIFC date 2022.03.31  09:19:06

 INCAR:
 POTCAR:  PAW_PBE Al 04Jan2001
 POTCAR:   PAW_PBE Cu 22Jun2005
 POTCAR:   PAW_PBE O 08Apr2002
 POTCAR:   PAW_PBE Si 05Jan2001
 POTCAR:  PAW_PBE H 15Jun2001

 POTCAR:  PAW_PBE Al 04Jan2001
   VRHFIN =Al: s2p1

   TITEL  = PAW_PBE Al 04Jan2001
   POMASS =   26.982; ZVAL   =    3.000    mass and valenz
   ENMAX  =  240.300; ENMIN  =  180.225 eV
   QCUT   =   -4.203; QGAM   =    8.405    optimization parameters

   Description
     l     E      TYP  RCUT    TYP  RCUT
     0   .000     23  1.900
     0   .000     23  1.900
     1   .000     23  1.900
     1  1.000     23  1.900
     2   .000      7  1.900

 POTCAR:   PAW_PBE Cu 22Jun2005
   VRHFIN =Cu: d10 p1

   TITEL  = PAW_PBE Cu 22Jun2005
   POMASS =   63.546; ZVAL   =   11.000    mass and valenz
   ENMAX  =  295.446; ENMIN  =  221.585 eV

 POTCAR:   PAW_PBE O 08Apr2002
   VRHFIN =O: s2p4

   TITEL  = PAW_PBE O 08Apr2002
   POMASS =   16.000; ZVAL   =    6.000    mass and valenz
   ENMAX  =  400.000; ENMIN  =  300.000 eV
   QCUT   =   -5.520; QGAM   =   11.041    optimization parameters

[...]

 POTCAR:   PAW_PBE Si 05Jan2001
   VRHFIN =Si: s2p2

   TITEL  = PAW_PBE Si 05Jan2001
   POMASS =   28.085; ZVAL   =    4.000    mass and valenz
   ENMAX  =  245.345; ENMIN  =  184.009 eV
   QCUT   =   -4.246; QGAM   =    8.493    optimization parameters

[...]

 POTCAR:  PAW_PBE H 15Jun2001
   VRHFIN =H: ultrasoft test

   TITEL  = PAW_PBE H 15Jun2001
   POMASS =    1.000; ZVAL   =    1.000    mass and valenz
   ENMAX  =  250.000; ENMIN  =  200.000 eV
   QCUT   =   -5.749; QGAM   =   11.498    optimization parameters

   Description
     l     E      TYP  RCUT    TYP  RCUT
     0   .000     23  1.100
     0   .500     23  1.100
     1  -.300     23  1.100

 Optimization of the real space projectors (new method)

 maximal supplied QI-value         = 19.84
 optimisation between [QCUT,QGAM] = [ 10.12, 20.44] = [ 28.68,116.96] Ry
 Optimized for a Real-space Cutoff    1.26 Angstroem

   l    n(q)    QCUT    max X(q) W(low)/X(q) W(high)/X(q)  e(spline)
   0      8    10.119    13.410    0.28E-04    0.17E-04    0.51E-08
   0      8    10.119   140.052    0.10E-03    0.16E-03    0.42E-07
   1      7    10.119     9.624    0.38E-04    0.42E-05    0.15E-07
   1      7    10.119    53.353    0.23E-03    0.17E-03    0.13E-06
 Optimization of the real space projectors (new method)

[...]

   l    n(q)    QCUT    max X(q) W(low)/X(q) W(high)/X(q)  e(spline)
   0      8    10.119     8.708    0.16E-04    0.67E-05    0.60E-08
   0      8    10.119   106.241    0.56E-04    0.11E-03    0.54E-07
   1      8    10.119     5.901    0.16E-04    0.16E-05    0.22E-07
   1      8    10.119    73.241    0.22E-03    0.17E-03    0.18E-06
 Optimization of the real space projectors (new method)

 maximal supplied QI-value         = 34.20
 optimisation between [QCUT,QGAM] = [  9.92, 20.18] = [ 27.55,114.04] Ry
 Optimized for a Real-space Cutoff    1.34 Angstroem

   l    n(q)    QCUT    max X(q) W(low)/X(q) W(high)/X(q)  e(spline)
   0      8     9.919     4.436    0.31E-04    0.59E-04    0.66E-07
   0      8     9.919    16.131    0.16E-03    0.20E-03    0.35E-06
   1      8     9.919     4.654    0.19E-03    0.46E-03    0.40E-06
PAW_PBE Al 04Jan2001                    :
 PAW_PBE Cu 22Jun2005                   :
 PAW_PBE O 08Apr2002                    :
 PAW_PBE Si 05Jan2001                   :
PAW_PBE H 15Jun2001                     :

 POSCAR: Al Cu O Si H
  positions in direct lattice
  velocities in cartesian coordinates
 exchange correlation table for  LEXCH =        8
   RHO(1)=    0.500       N(1)  =     2000
   RHO(2)=  100.500       N(2)  =     4000

 ion  position               nearest neighbor table
   1  0.150  0.076  0.834-  10 1.61  21 1.61  29 1.61  14 1.61  61 3.08  59 3.09  63 3.11  72 3.12

   2  0.076  0.150  0.334-  11 1.61  23 1.61  31 1.61  12 1.61  62 3.08  57 3.09  65 3.11  74 3.12

   3  0.658  0.116  0.439-  47 1.61  35 1.61  41 1.61  22 1.61   6 2.79  65 3.09  71 3.10  62 3.11
                            74 3.12
   4  0.322  0.131  0.052-  32 1.61  53 1.61  24 1.61  48 1.61   7 2.73  72 3.09  63 3.10  57 3.12
                            66 3.12
   5  0.131  0.322  0.552-  34 1.61  55 1.61  26 1.61  50 1.61  74 3.09  65 3.10  59 3.12  68 3.12

[...]

  74  0.322  0.131  0.448-  39 1.61  55 1.61  31 1.61  47 1.61   6 2.72   5 3.09  69 3.10   2 3.12
                             3 3.12
  75  0.869  0.678  0.448-  38 1.61  54 1.61  30 1.61  46 1.61  71 3.09  68 3.10  62 3.12  65 3.12

  76  0.337  0.892  0.258-  56 0.98

IMPORTANT INFORMATION: All symmetrisations will be switched off!
NOSYMM: (Re-)initialisation of all symmetry stuff for point group C_1.

 KPOINTS: Automatic

Automatic generation of k-mesh.
Space group operators:
 irot       det(A)        alpha          n_x          n_y          n_z        tau_x        tau_y        tau_z
    1     1.000000     0.000000     1.000000     0.000000     0.000000     0.000000     0.000000     0.000000

 Subroutine IBZKPT returns following result:

 Found      1 irreducible k-points:

 Following reciprocal coordinates:
            Coordinates               Weight
  0.000000  0.000000  0.000000      1.000000

 Following cartesian coordinates:
            Coordinates               Weight
  0.000000  0.000000  0.000000      1.000000

 SYSTEM =  ZEOLITE_energy
 POSCAR =  Al Cu O Si H

 Startparameter for this run:
   NWRITE =      2    write-flag & timer
   PREC   = accura    normal or accurate (medium, high low for compatibility)
   ISTART =      0    job   : 0-new  1-cont  2-samecut
   ICHARG =      2    charge: 1-file 2-atom 10-const
   ISPIN  =      1    spin polarized calculation?
   LNONCOLLINEAR =      F non collinear calculations
   LSORBIT =      F    spin-orbit coupling
   INIWAV =      1    electr: 0-lowe 1-rand  2-diag
   LASPH  =      F    aspherical Exc in radial PAW
   METAGGA=      F    non-selfconsistent MetaGGA calc.

 Electronic Relaxation 1
   ENCUT  =  400.0 eV  29.40 Ry    5.42 a.u.  15.17 15.17 30.16*2*pi/ulx,y,z
   ENINI  =  400.0     initial cutoff
   ENAUG  =  605.4 eV  augmentation charge cutoff
   NELM   =    100;   NELMIN=  5; NELMDL=-12     # of ELM steps
   EDIFF  = 0.1E-05   stopping-criterion for ELM
   LREAL  =      T    real-space projection
   NLSPLINE    = F    spline interpolate recip. space projectors
   LCOMPAT=      F    compatible to vasp.4.4
   GGA_COMPAT  = T    GGA compatible to vasp.4.4-vasp.4.6
   LMAXPAW     = -100 max onsite density
   LMAXMIX     =    2 max onsite mixed and CHGCAR
   VOSKOWN=      0    Vosko Wilk Nusair interpolation
   ROPT   =   -0.00025  -0.00025  -0.00025  -0.00025
   ROPT   =   -0.00025
 Ionic relaxation
   EDIFFG = -.5E-02   stopping-criterion for IOM
   NSW    =      0    number of steps for IOM
   NBLOCK =      1;   KBLOCK =      1    inner block; outer block
   IBRION =     -1    ionic relax: 0-MD 1-quasi-New 2-CG
   NFREE  =      2    steps in history (QN), initial steepest desc. (CG)
   ISIF   =      2    stress and relaxation
   IWAVPR =     10    prediction:  0-non 1-charg 2-wave 3-comb
   ISYM   =      0    0-nonsym 1-usesym 2-fastsym
   LCORR  =      T    Harris-Foulkes like correction to forces

   POTIM  = 0.0150    time-step for ionic-motion
   TEIN   =    0.0    initial temperature
   TEBEG  =    0.0;   TEEND  =   0.0 temperature during run
   SMASS  =  -3.00    Nose mass-parameter (am)
   estimated Nose-frequenzy (Omega)   =  0.10E-29 period in steps =****** mass=  -0.198E-26a.u.
   SCALEE = 1.0000    scale energy and forces
   NPACO  =    256;   APACO  = 16.0  distance and # of slots for P.C.
   PSTRESS=    0.0 pullay stress

  Mass of Ions in am
   POMASS =  26.98 63.55 16.00 28.09  1.00
  Ionic Valenz
   ZVAL   =   3.00 11.00  6.00  4.00  1.00
  Atomic Wigner-Seitz radii
  virtual crystal weights
   VCA    =   1.00  1.00  1.00  1.00  1.00
   NELECT =     408.0000    total number of electrons
   NUPDOWN=      -1.0000    fix difference up-down

 DOS related values:
   EMIN   =  10.00;   EMAX   =-10.00  energy-range for DOS
   EFERMI =   0.00
   ISMEAR =     0;   SIGMA  =   0.20  broadening in eV -4-tet -1-fermi 0-gaus

 Electronic relaxation 2 (details)
   IALGO  =     48    algorithm
   LDIAG  =      T    sub-space diagonalisation (order eigenvalues)
   LSUBROT=      F    optimize rotation matrix (better conditioning)
   TURBO    =      0    0=normal 1=particle mesh
   IRESTART =      0    0=no restart 2=restart with 2 vectors
   NREBOOT  =      0    no. of reboots
   NMIN     =      0    reboot dimension
   EREF     =   0.00    reference energy to select bands
   IMIX   =      4    mixing-type and parameters
     AMIX     =   0.40;   BMIX     =  1.00
     AMIX_MAG =   1.60;   BMIX_MAG =  1.00
     AMIN     =   0.10
     WC   =   100.;   INIMIX=   1;  MIXPRE=   1;  MAXMIX= -45

 Intra band minimization:
   WEIMIN = 0.0000     energy-eigenvalue tresh-hold
   EBREAK =  0.10E-08  absolut break condition
   DEPER  =   0.30     relativ break condition

   TIME   =   0.40     timestep for ELM

  volume/ion in A,a.u.               =      20.98       141.60
  Fermi-wavevector in a.u.,A,eV,Ry     =   1.039290  1.963974 14.695987  1.080125
  Thomas-Fermi vector in A             =   2.173814

 Write flags
   LWAVE        =      F    write WAVECAR
   LDOWNSAMPLE  =      F    k-point downsampling of WAVECAR
   LCHARG       =      F    write CHGCAR
   LVTOT        =      F    write LOCPOT, total local potential
   LVHAR        =      F    write LOCPOT, Hartree potential only
   LELF         =      F    write electronic localiz. function (ELF)
   LORBIT       =      0    0 simple, 1 ext, 2 COOP (PROOUT), +10 PAW based schemes

 Dipole corrections
   LMONO  =      F    monopole corrections only (constant potential shift)
   LDIPOL =      F    correct potential (dipole corrections)
   IDIPOL =      0    1-x, 2-y, 3-z, 4-all directions
   EPSILON=  1.0000000 bulk dielectric constant

 Exchange correlation treatment:
   GGA     =    PE    GGA type
   VOSKOWN=      0    Vosko Wilk Nusair interpolation
   LHFCALC =     F    Hartree Fock is set to
   LHFONE  =     F    Hartree Fock one center treatment
   AEXX    =    0.0000 exact exchange contribution

 Linear response parameters
   LEPSILON=     F    determine dielectric tensor
   LRPA    =     F    only Hartree local field effects (RPA)
   LNABLA  =     F    use nabla operator in PAW spheres
   LVEL    =     F    velocity operator in full k-point grid
   LINTERFAST=   F  fast interpolation
   KINTER  =     0    interpolate to denser k-point grid
   CSHIFT  =0.1000    complex shift for real part using Kramers Kronig
   OMEGAMAX=  -1.0    maximum frequency
   DEG_THRESHOLD= 0.2000000E-02 threshold for treating states as degnerate
   RTIME   =   -0.100 relaxation time in fs
  (WPLASMAI=    0.000 imaginary part of plasma frequency in eV, 0.658/RTIME)
   DFIELD  = 0.0000000 0.0000000 0.0000000 field for delta impulse in time

 Orbital magnetization related:
   ORBITALMAG=     F  switch on orbital magnetization
[...]

  length of vectors
     9.300494315  9.300494315 18.497000000     0.107878134  0.107878134  0.054062821

 FORCES acting on ions
    electron-ion (+dipol)            ewald-force                    non-local-force                 convergence-correction
   -.534E+02 -.187E+02 0.560E+02   0.529E+02 0.187E+02 -.559E+02   0.102E+01 0.341E+00 -.368E+00   0.215E-03 0.797E-04 0.125E-02
   -.395E+02 -.228E+02 0.655E+01   0.382E+02 0.239E+02 -.722E+01   0.124E+01 -.590E+00 -.618E-02   0.131E-03 -.660E-03 -.732E-03
   -.478E+02 -.512E+02 -.624E+02   0.492E+02 0.495E+02 0.646E+02   -.302E-01 0.114E+01 -.565E+00   -.681E-03 0.186E-03 -.188E-02
   -.398E+02 -.221E+02 0.444E+02   0.384E+02 0.229E+02 -.470E+02   0.957E+00 -.170E+00 0.114E+01   0.203E-03 -.315E-03 0.190E-02
   -.446E+02 -.152E+02 -.812E+02   0.445E+02 0.154E+02 0.810E+02   0.597E+00 0.528E-01 0.916E+00   0.176E-03 -.517E-05 -.145E-02
   -.138E+02 0.358E+01 -.194E+02   0.108E+02 -.461E+01 0.161E+02   0.351E+01 0.127E+01 0.457E+01   -.557E-03 -.653E-04 -.534E-02
   -.141E+03 -.725E+02 0.384E+02   0.135E+03 0.709E+02 -.349E+02   0.594E+01 0.198E+01 -.477E+01   -.585E-03 -.140E-02 0.554E-02
   0.246E+02 0.174E+03 0.270E+02   -.243E+02 -.193E+03 -.303E+02   -.919E+00 0.191E+02 0.296E+01   0.524E-03 0.458E-04 0.132E-02
   -.295E+01 -.196E+03 -.657E+02   0.337E+01 0.215E+03 0.622E+02   -.899E+00 -.195E+02 0.326E+01   -.159E-02 0.481E-03 -.159E-02
   -.232E+02 -.188E+03 0.652E+02   0.301E+02 0.205E+03 -.619E+02   -.114E+02 -.157E+02 -.295E+01   -.967E-03 0.667E-03 0.195E-02
   0.323E+00 0.166E+03 -.281E+02   0.619E+01 -.182E+03 0.317E+02   -.111E+02 0.151E+02 -.330E+01   0.325E-03 0.233E-03 -.141E-02
   -.196E+03 -.122E+03 -.270E+02   0.211E+03 0.126E+03 0.339E+02   -.144E+02 -.417E+01 -.115E+02   0.224E-03 -.171E-02 -.462E-04
   0.184E+03 0.990E+02 0.610E+01   -.202E+03 -.963E+02 -.543E+01   0.174E+02 -.253E+01 -.121E+01   -.236E-03 0.188E-02 0.335E-03
   -.230E+03 0.231E+01 -.222E+02   0.246E+03 -.513E+01 0.291E+02   -.150E+02 0.249E+01 -.111E+02   0.511E-03 -.352E-03 0.563E-03
   0.232E+03 0.822E+01 -.106E+01   -.250E+03 -.117E+02 0.116E+01   0.180E+02 0.336E+01 -.199E+00   -.133E-02 0.472E-04 0.132E-04
   -.130E+03 -.160E+03 -.103E+03   0.138E+03 0.170E+03 0.116E+03   -.769E+01 -.958E+01 -.130E+02   -.321E-03 -.591E-03 0.147E-02
   0.295E+02 -.426E+02 -.371E+02   -.356E+02 0.514E+02 0.481E+02   0.556E+01 -.810E+01 -.103E+02   -.106E-02 0.145E-02 0.248E-02
   -.118E+03 0.127E+03 -.214E+03   0.126E+03 -.137E+03 0.227E+03   -.774E+01 0.894E+01 -.129E+02   0.249E-03 -.163E-02 -.217E-02
   0.124E+03 0.137E+03 -.203E+03   -.132E+03 -.148E+03 0.216E+03   0.748E+01 0.106E+02 -.120E+02   -.450E-03 0.204E-03 -.112E-02
   0.120E+03 0.135E+03 0.204E+03   -.127E+03 -.145E+03 -.217E+03   0.660E+01 0.968E+01 0.125E+02   -.879E-03 -.526E-03 0.161E-02
   -.116E+03 0.110E+03 0.221E+03   0.123E+03 -.113E+03 -.235E+03   -.623E+01 -.103E+01 0.167E+02   0.472E-03 -.104E-02 0.255E-02
   -.139E+02 -.281E+02 0.114E+02   0.122E+02 0.385E+02 -.150E+02   0.354E+00 -.118E+02 -.420E+00   -.198E-02 0.211E-02 -.277E-02
   -.129E+03 -.140E+03 0.109E+03   0.135E+03 0.143E+03 -.124E+03   -.550E+01 0.140E+00 0.164E+02   -.750E-03 -.749E-03 -.212E-02
   -.553E+02 -.410E+02 0.808E+01   0.614E+02 0.341E+02 -.589E+01   -.709E+01 0.733E+01 0.187E+01   0.111E-02 -.227E-02 0.316E-02
   0.121E+03 0.156E+03 -.115E+03   -.127E+03 -.166E+03 0.128E+03   0.634E+01 0.105E+02 -.124E+02   0.170E-03 0.744E-03 0.148E-02
   -.130E+03 -.132E+03 -.208E+03   0.139E+03 0.144E+03 0.214E+03   -.108E+02 -.141E+02 -.266E+01   0.282E-03 0.257E-03 -.196E-02
   0.118E+03 -.111E+03 -.227E+03   -.124E+03 0.122E+03 0.240E+03   0.592E+01 -.107E+02 -.120E+02   -.651E-03 0.522E-03 -.152E-02
   0.118E+03 -.112E+03 0.227E+03   -.124E+03 0.122E+03 -.240E+03   0.550E+01 -.998E+01 0.132E+02   -.790E-03 0.391E-03 0.168E-02
   -.107E+03 -.105E+03 0.237E+03   0.109E+03 0.109E+03 -.252E+03   0.469E+00 -.136E+01 0.178E+02   0.869E-03 0.836E-03 0.261E-02
   0.118E+03 0.162E+03 0.114E+03   -.123E+03 -.173E+03 -.127E+03   0.535E+01 0.996E+01 0.123E+02   0.329E-03 0.139E-02 -.178E-02
   -.478E+02 -.604E+02 0.419E+02   0.488E+02 0.596E+02 -.548E+02   0.198E+01 -.304E+01 0.147E+02   0.892E-03 -.282E-02 -.350E-02
   0.866E+02 0.676E+02 -.412E+01   -.953E+02 -.659E+02 0.180E+02   0.584E+01 -.400E+01 -.158E+02   0.725E-03 -.349E-04 0.358E-02
   -.655E+02 0.961E+02 -.629E+02   0.791E+02 -.993E+02 0.751E+02   -.133E+02 0.319E+01 -.117E+02   -.126E-03 0.122E-03 0.211E-02
   0.564E+02 -.865E+02 -.207E+03   -.645E+02 0.855E+02 0.222E+03   0.528E+01 0.343E+01 -.169E+02   -.890E-03 0.582E-03 -.295E-02
   -.105E+03 -.851E+02 -.221E+03   0.120E+03 0.912E+02 0.228E+03   -.167E+02 -.808E+01 -.341E+01   -.262E-03 0.595E-03 -.311E-02
   -.887E+02 -.789E+02 0.230E+03   0.102E+03 0.819E+02 -.243E+03   -.130E+02 -.284E+01 0.132E+02   -.414E-04 0.483E-03 0.257E-02
   0.701E+02 -.967E+02 0.200E+03   -.833E+02 0.989E+02 -.213E+03   0.126E+02 -.185E+01 0.130E+02   -.188E-03 0.219E-03 0.235E-02
   -.616E+02 0.995E+02 0.622E+02   0.749E+02 -.103E+03 -.743E+02   -.129E+02 0.352E+01 0.117E+02   0.220E-03 0.798E-03 -.241E-02
   0.104E+03 0.701E+02 -.113E+02   -.118E+03 -.722E+02 -.468E+00   0.131E+02 0.189E+01 0.113E+02   0.902E-03 -.601E-03 -.404E-02
   0.949E+01 0.253E+03 0.383E+02   -.890E+01 -.271E+03 -.329E+02   -.998E+00 0.178E+02 -.530E+01   -.695E-04 -.573E-03 0.216E-02
   -.265E+02 -.243E+03 -.123E+03   0.207E+02 0.259E+03 0.128E+03   0.981E+01 -.140E+02 -.526E+01   -.150E-02 0.423E-04 -.258E-02
   -.381E+02 -.251E+03 0.122E+03   0.383E+02 0.269E+03 -.128E+03   -.410E+00 -.185E+02 0.628E+01   -.650E-03 0.123E-04 0.209E-02
   0.155E+02 0.255E+03 -.393E+02   -.160E+02 -.274E+03 0.340E+02   0.838E+00 0.188E+02 0.509E+01   0.638E-03 -.326E-03 -.206E-02
   0.108E+03 0.122E+03 0.225E+03   -.116E+03 -.130E+03 -.238E+03   0.819E+01 0.739E+01 0.125E+02   0.227E-03 -.420E-03 0.211E-02
   -.100E+03 0.115E+03 0.208E+03   0.108E+03 -.125E+03 -.220E+03   -.718E+01 0.999E+01 0.124E+02   0.145E-03 -.126E-03 0.186E-02
   0.979E+02 -.102E+03 0.859E+02   -.106E+03 0.110E+03 -.979E+02   0.884E+01 -.721E+01 0.117E+02   -.465E-03 0.451E-03 -.206E-02
   -.214E+03 -.167E+03 -.116E+03   0.229E+03 0.173E+03 0.114E+03   -.179E+02 -.324E+01 -.682E+00   -.136E-02 -.164E-02 -.558E-02
   -.166E+03 -.160E+03 0.966E+02   0.170E+03 0.173E+03 -.940E+02   -.740E+00 -.163E+02 0.252E+00   -.101E-02 -.356E-03 0.438E-02
   0.970E+02 -.109E+03 -.877E+02   -.105E+03 0.118E+03 0.999E+02   0.767E+01 -.838E+01 -.118E+02   -.255E-03 0.142E-05 0.158E-02
   -.810E+02 0.128E+03 -.202E+03   0.824E+02 -.140E+03 0.212E+03   0.217E+01 0.154E+02 -.937E+01   0.761E-03 0.237E-03 -.170E-02
   0.107E+03 0.126E+03 -.230E+03   -.115E+03 -.134E+03 0.242E+03   0.695E+01 0.864E+01 -.122E+02   0.410E-03 -.379E-03 -.208E-02
   0.254E+03 0.203E+02 0.783E+02   -.273E+03 -.203E+02 -.787E+02   0.189E+02 0.192E-01 0.611E+00   -.104E-03 0.221E-03 0.208E-02
   -.248E+03 -.109E+02 0.870E+02   0.264E+03 0.577E+01 -.839E+02   -.152E+02 0.829E+01 -.552E+01   0.318E-03 -.508E-03 0.292E-02
   0.252E+03 0.260E+02 -.819E+02   -.271E+03 -.257E+02 0.821E+02   0.183E+02 -.451E+00 -.293E+00   -.368E-04 0.755E-03 -.221E-02
   -.248E+03 -.504E+02 -.109E+03   0.265E+03 0.564E+02 0.114E+03   -.153E+02 -.953E+01 -.738E+01   0.478E-03 -.149E-02 -.367E-02
   0.352E+03 0.288E+03 0.335E+02   -.338E+03 -.321E+03 -.401E+02   -.140E+02 0.325E+02 0.662E+01   0.481E-02 0.314E-02 0.117E-02
   -.478E+02 -.315E+02 -.992E+01   0.486E+02 0.317E+02 0.128E+02   -.835E-01 0.222E+00 -.138E+01   0.336E-03 -.791E-03 0.819E-03
   0.518E+02 0.618E+02 -.129E+02   -.504E+02 -.625E+02 0.129E+02   -.126E+01 -.216E+00 0.376E+00   -.681E-04 0.721E-03 0.912E-03
   -.706E+02 -.266E+02 -.759E+02   0.721E+02 0.281E+02 0.769E+02   -.418E+00 -.773E+00 -.388E+00   -.520E-03 -.521E-03 -.128E-02
   0.693E+02 -.228E+02 -.750E+02   -.683E+02 0.224E+02 0.742E+02   -.123E+01 0.635E+00 0.815E+00   -.792E-03 0.160E-03 -.803E-03
[...]
   0.117E+02 0.846E+02 0.776E+02   -.104E+02 -.810E+02 -.773E+02   -.973E+00 -.313E+01 -.360E+00   0.212E-03 -.485E-03 0.192E-02
   -.241E+01 0.864E+02 0.632E+02   0.207E+01 -.856E+02 -.632E+02   0.368E+00 -.111E+01 -.293E+00   -.204E-03 -.202E-03 0.134E-02
   -.569E+01 -.857E+02 -.227E+02   0.443E+01 0.831E+02 0.234E+02   0.682E+00 0.247E+01 -.604E+00   -.833E-03 0.120E-03 -.186E-02
   -.462E+02 -.692E+02 0.719E+02   0.459E+02 0.691E+02 -.730E+02   0.857E+00 0.260E+00 0.260E+00   -.515E-03 0.331E-03 0.194E-02
   -.411E+01 -.897E+02 0.222E+02   0.492E+01 0.880E+02 -.228E+02   -.520E+00 0.173E+01 0.537E+00   -.274E-03 -.928E-04 0.127E-02
   0.117E+01 0.876E+02 -.621E+02   -.309E+01 -.890E+02 0.627E+02   0.141E+01 0.412E+00 -.451E-01   0.317E-03 0.361E-03 -.123E-02
   0.133E+02 0.852E+02 -.796E+02   -.131E+02 -.843E+02 0.798E+02   -.173E+00 -.133E+01 0.209E+00   0.351E-03 -.577E-03 -.174E-02
   0.622E+02 0.248E+02 -.208E+02   -.616E+02 -.247E+02 0.191E+02   -.845E+00 -.215E+00 0.172E+01   -.503E-04 0.192E-03 0.123E-02
   0.590E+02 -.220E+01 -.120E+03   -.559E+02 0.381E+01 0.118E+03   -.230E+01 -.931E+00 0.231E+01   -.120E-04 0.309E-03 -.155E-02
   -.586E+02 -.171E+02 0.110E+03   0.581E+02 0.144E+02 -.110E+03   0.800E+00 0.209E+01 -.690E+00   0.273E-03 0.665E-04 0.179E-02
   0.591E+02 -.527E+01 0.117E+03   -.590E+02 0.513E+01 -.117E+03   -.560E+00 0.232E+00 -.123E+01   -.290E-04 0.148E-03 0.149E-02
   -.517E+02 -.428E+02 -.576E+02   0.516E+02 0.460E+02 0.594E+02   -.532E-01 -.148E+01 -.620E+00   0.342E-03 -.124E-02 -.335E-02
   0.620E+02 0.286E+02 0.192E+02   -.617E+02 -.285E+02 -.178E+02   -.611E+00 -.129E+00 -.153E+01   0.113E-04 0.625E-03 -.143E-02
   0.124E+03 0.206E+01 -.594E+01   -.131E+03 0.133E+01 0.674E+01   0.735E+01 -.342E+01 -.810E+00   0.965E-03 0.135E-04 0.587E-05
   0.169E+02 -.204E+02 -.165E+01   0.284E-12 0.336E-12 0.810E-12   -.169E+02 0.204E+02 0.164E+01   -.520E-02 -.112E-02 -.337E-02

 POSITION                                       TOTAL-FORCE (eV/Angst)
      1.54003     -0.46520     15.41910         0.441900      0.270406     -0.253490
      1.54003      0.46520      6.17060        -0.056956      0.407323     -0.676716
      5.29573     -3.41776      8.12758         1.360979     -0.564592      1.599142
      3.10058     -1.20775      0.96369        -0.392475      0.618269     -1.476287
      3.10058      1.20775     10.21219         0.421625      0.197093      0.709673
      3.52448     -2.74728      6.08308         0.432605      0.219728      1.276085
      3.48026     -2.34893      3.41992        -0.082373      0.445240     -1.298575
      0.00274      0.00252      2.98542        -0.624303     -0.475524     -0.385797
      0.00274     -0.00252     12.23392        -0.481584      0.376692     -0.187381
      0.00274     -0.00252     15.51158        -4.513826      1.122972      0.297139
      0.00274      0.00252      6.26308        -4.595683     -1.182252      0.363268
      1.98180      0.55219      4.62425         1.210632     -0.053241     -4.524062
     11.69520      0.55219      4.62425        -0.654093      0.277237     -0.535987
      1.98180     -0.55219     13.87275         1.001611     -0.331707     -4.283985
     11.69520     -0.55219     13.87275        -0.428365     -0.102563     -0.098077
      8.55086     -4.39354      2.39166         0.130788      0.390724      0.022222
      5.12614     -4.39354      2.39166        -0.471362      0.625579      0.656427
      8.55086      4.39354     11.64016         0.148606     -0.564881     -0.052025
      5.12614      4.39354     11.64016        -0.111441     -0.085083      0.342513
      5.12614      4.39354     16.10534        -0.310391     -0.443300     -0.166816
      8.55086      4.39354     16.10534         0.490410     -3.928900      1.963210
      5.12614     -4.39354      6.85684        -1.389545     -1.416001     -4.023341
      8.55086     -4.39354      6.85684         0.586089      3.794733      1.907384
      2.46733     -0.60892      2.31767        -0.940483      0.486226      4.060935
     11.20967     -0.60892      2.31767        -0.024154     -0.079873      0.346178
      2.46733      0.60892     11.56617        -1.894194     -1.793465      3.507748
     11.20967      0.60892     11.56617        -0.100034      0.036039      0.464510
     11.20967      0.60892     16.17933        -0.338108      0.340440     -0.005794
      2.46733      0.60892     16.17933         2.576063      2.851465      2.307422
     11.20967     -0.60892      6.93083        -0.368913     -0.273349     -0.240774
      2.46733     -0.60892      6.93083         3.032440     -3.787841      1.712213
      8.84218      4.18805      0.21457        -2.878837     -2.379202     -1.825758
      4.83482      4.18805      0.21457         0.323420      0.051117      0.494807
      8.84218     -4.18805      9.46307        -2.798592      2.376612     -2.024728
      4.83482     -4.18805      9.46307        -1.450041     -2.022253      3.402477
      4.83482     -4.18805     18.28243         0.520801      0.195513      0.027077
      8.84218     -4.18805     18.28243        -0.616921      0.407434      0.029337
      4.83482      4.18805      9.03393         0.400859      0.091703     -0.512143
      8.84218      4.18805      9.03393        -0.402682     -0.252352     -0.478666
      6.83850      2.98029     17.51296        -0.403585     -0.494150      0.125153
      6.83850     -2.98029      8.26446         3.980202      1.217536      0.082460
      6.83850     -2.98029      0.98404        -0.186664      0.344951     -0.065737
      6.83850      2.98029     10.23254         0.296979     -0.230295     -0.282886
      9.29215      2.10789     17.16707         0.099795     -0.691388     -0.166621
      4.38485      2.10789     17.16707         0.450469      0.191049     -0.206538
      9.29215     -2.10789      7.91857         0.317140      0.694390     -0.263279
      4.38485     -2.10789      7.91857        -2.712593      3.004200     -2.572711
      4.38485     -2.10789      1.32993         3.221424     -2.505472      2.893938
      9.29215     -2.10789      1.32993        -0.166202      0.309586      0.335409
      4.38485      2.10789     10.57843         3.578525      2.689661      0.835002
      9.29215      2.10789     10.57843        -0.438034     -0.135513      0.252796
     10.12645      0.00000      0.00000        -0.477637     -0.042958      0.165994
      3.55055      0.00000      0.00000         1.219690      3.170869     -2.435344
     10.12645      0.00000      9.24850        -0.628839     -0.205760     -0.150835
      3.55055      0.00000      9.24850         1.138003     -3.562751     -2.912972
      9.27975      3.06904      4.67401         0.003067      0.001504     -0.001057
      1.54003      0.46520      3.07790         0.632382      0.407008      1.511051
     12.13697      0.46520      3.07790         0.112573     -0.876007      0.366156
      1.54003     -0.46520     12.32640         1.073245      0.670794      0.598954
     12.13697     -0.46520     12.32640        -0.184256      0.201752     -0.029430
     12.13697     -0.46520     15.41910         0.700148      0.546962     -0.040761
     12.13697      0.46520      6.17060         1.020351     -0.821997      0.174293
      8.38127      3.41776     17.37608         0.334600      0.480883     -0.039675
      5.29573      3.41776     17.37608         0.030928     -0.326349     -0.324210
      8.38127     -3.41776      8.12758        -0.573568     -0.135299      0.111583
      5.29573     -3.41776      1.12092         0.567302      0.100150     -0.943790
      8.38127     -3.41776      1.12092         0.291564     -0.019529     -0.138304
      5.29573      3.41776     10.36942        -0.505165     -0.970657      0.485910
      8.38127      3.41776     10.36942         0.028034     -0.384780      0.441944
     10.57642     -1.20775      0.96369        -0.192195     -0.175331     -0.025952
     10.57642      1.20775     10.21219         0.741115      0.674567      0.014369
      3.10058      1.20775     17.53331         0.282526     -0.693587     -0.602160
     10.57642      1.20775     17.53331        -0.428783      0.087969     -0.682142
      3.10058     -1.20775      8.28481        -0.125958      1.710559      1.157938
     10.57642     -1.20775      8.28481        -0.247519     -0.076660     -0.107873
      8.40613      3.50289      4.77579        -0.002533     -0.002072     -0.000037
    total drift:                               -0.011748     -0.005835     -0.014558

  FREE ENERGIE OF THE ION-ELECTRON SYSTEM (eV)
  free  energy   TOTEN  =      -569.28187029 eV

  energy  without entropy=     -568.66867729  energy(sigma->0) =     -568.97527379