 vasp.5.4.4.18Apr17-6-g9f103f2a35 (build Dec 21 2018 14:18:36) complex

 executed on             LinuxIFC date 2022.03.30  23:31:08

 INCAR:
 POTCAR:  PAW_PBE Al 04Jan2001
 POTCAR:   PAW_PBE Cu 22Jun2005
 POTCAR:   PAW_PBE O 08Apr2002
 POTCAR:   PAW_PBE Si 05Jan2001

 POTCAR:  PAW_PBE Al 04Jan2001
   VRHFIN =Al: s2p1

   TITEL  = PAW_PBE Al 04Jan2001
   POMASS =   26.982; ZVAL   =    3.000    mass and valenz
   ENMAX  =  240.300; ENMIN  =  180.225 eV
   QCUT   =   -4.203; QGAM   =    8.405    optimization parameters

   Description
     l     E      TYP  RCUT    TYP  RCUT
     0   .000     23  1.900
     0   .000     23  1.900
     1   .000     23  1.900
     1  1.000     23  1.900
     2   .000      7  1.900

 POTCAR:   PAW_PBE Cu 22Jun2005
   VRHFIN =Cu: d10 p1

   TITEL  = PAW_PBE Cu 22Jun2005
   POMASS =   63.546; ZVAL   =   11.000    mass and valenz
   ENMAX  =  295.446; ENMIN  =  221.585 eV

 POTCAR:   PAW_PBE O 08Apr2002
   VRHFIN =O: s2p4

   TITEL  = PAW_PBE O 08Apr2002
   POMASS =   16.000; ZVAL   =    6.000    mass and valenz
   ENMAX  =  400.000; ENMIN  =  300.000 eV
   QCUT   =   -5.520; QGAM   =   11.041    optimization parameters

[...]

 POTCAR:   PAW_PBE Si 05Jan2001
   VRHFIN =Si: s2p2

   TITEL  = PAW_PBE Si 05Jan2001
   POMASS =   28.085; ZVAL   =    4.000    mass and valenz
   ENMAX  =  245.345; ENMIN  =  184.009 eV
   QCUT   =   -4.246; QGAM   =    8.493    optimization parameters

   Description
     l     E      TYP  RCUT    TYP  RCUT
     0   .000     23  1.900
     0   .000     23  1.900
     1   .000     23  1.900
     1   .000     23  1.900
     2   .000      7  1.900

 Optimization of the real space projectors (new method)

 maximal supplied QI-value         = 19.84
 optimisation between [QCUT,QGAM] = [ 10.12, 20.44] = [ 28.68,116.96] Ry
 Optimized for a Real-space Cutoff    1.26 Angstroem

   l    n(q)    QCUT    max X(q) W(low)/X(q) W(high)/X(q)  e(spline)
   0      8    10.119    13.410    0.28E-04    0.17E-04    0.51E-08
   0      8    10.119   140.052    0.10E-03    0.16E-03    0.42E-07
   1      7    10.119     9.624    0.38E-04    0.42E-05    0.15E-07
   1      7    10.119    53.353    0.23E-03    0.17E-03    0.13E-06
 Optimization of the real space projectors (new method)

[...]

   l    n(q)    QCUT    max X(q) W(low)/X(q) W(high)/X(q)  e(spline)
   0      9    10.150     4.192    0.32E-04    0.13E-04    0.13E-06
   0      9    10.150     8.473    0.18E-03    0.20E-03    0.43E-06
   1      9    10.150     2.474    0.32E-04    0.33E-04    0.64E-07
   1      9    10.150     3.912    0.13E-03    0.16E-03    0.33E-06
 Optimization of the real space projectors (new method)

 maximal supplied QI-value         = 19.84
 optimisation between [QCUT,QGAM] = [ 10.12, 20.44] = [ 28.68,116.96] Ry
 Optimized for a Real-space Cutoff    1.38 Angstroem

   l    n(q)    QCUT    max X(q) W(low)/X(q) W(high)/X(q)  e(spline)
   0      8    10.119     8.708    0.16E-04    0.67E-05    0.60E-08
   0      8    10.119   106.241    0.56E-04    0.11E-03    0.54E-07
   1      8    10.119     5.901    0.16E-04    0.16E-05    0.22E-07
   1      8    10.119    73.241    0.22E-03    0.17E-03    0.18E-06
PAW_PBE Al 04Jan2001                    :
 PAW_PBE Cu 22Jun2005                   :
 PAW_PBE O 08Apr2002                    :
 PAW_PBE Si 05Jan2001                   :

 POSCAR: Al Cu O Si
  positions in direct lattice
  velocities in cartesian coordinates
 exchange correlation table for  LEXCH =        8
   RHO(1)=    0.500       N(1)  =     2000
   RHO(2)=  100.500       N(2)  =     4000

 ion  position               nearest neighbor table
   1  0.150  0.076  0.834-  10 1.61  21 1.61  29 1.61  14 1.61  61 3.08  59 3.09  63 3.11  72 3.12

   2  0.076  0.150  0.334-  11 1.61  23 1.61  31 1.61  12 1.61  62 3.08  57 3.09  65 3.11  74 3.12

   3  0.658  0.116  0.439-  47 1.61  35 1.61  41 1.61  22 1.61   6 2.79  65 3.09  71 3.10  62 3.11
                            74 3.12
   4  0.322  0.131  0.052-  32 1.61  53 1.61  24 1.61  48 1.61   7 2.73  72 3.09  63 3.10  57 3.12
                            66 3.12
   5  0.131  0.322  0.552-  34 1.61  55 1.61  26 1.61  50 1.61  74 3.09  65 3.10  59 3.12  68 3.12

[...]

  73  0.678  0.869  0.948-  36 1.61  52 1.61  28 1.61  44 1.61  70 3.09  66 3.10  61 3.12  63 3.12

  74  0.322  0.131  0.448-  39 1.61  55 1.61  31 1.61  47 1.61   6 2.72   5 3.09  69 3.10   2 3.12
                             3 3.12
  75  0.869  0.678  0.448-  38 1.61  54 1.61  30 1.61  46 1.61  71 3.09  68 3.10  62 3.12  65 3.12

IMPORTANT INFORMATION: All symmetrisations will be switched off!
NOSYMM: (Re-)initialisation of all symmetry stuff for point group C_1.

 KPOINTS: Automatic

Automatic generation of k-mesh.
Space group operators:
 irot       det(A)        alpha          n_x          n_y          n_z        tau_x        tau_y        tau_z
    1     1.000000     0.000000     1.000000     0.000000     0.000000     0.000000     0.000000     0.000000

 Subroutine IBZKPT returns following result:

 Found      1 irreducible k-points:

 Following reciprocal coordinates:
            Coordinates               Weight
  0.000000  0.000000  0.000000      1.000000

 Following cartesian coordinates:
            Coordinates               Weight
  0.000000  0.000000  0.000000      1.000000

 SYSTEM =  ZEOLITE_aei_energy
 POSCAR =  Al Cu O Si

 Startparameter for this run:
   NWRITE =      2    write-flag & timer
   PREC   = accura    normal or accurate (medium, high low for compatibility)
   ISTART =      0    job   : 0-new  1-cont  2-samecut
   ICHARG =      2    charge: 1-file 2-atom 10-const
   ISPIN  =      1    spin polarized calculation?
   LNONCOLLINEAR =      F non collinear calculations
   LSORBIT =      F    spin-orbit coupling
   INIWAV =      1    electr: 0-lowe 1-rand  2-diag
   LASPH  =      F    aspherical Exc in radial PAW
   METAGGA=      F    non-selfconsistent MetaGGA calc.

 Electronic Relaxation 1
   ENCUT  =  400.0 eV  29.40 Ry    5.42 a.u.  15.17 15.17 30.16*2*pi/ulx,y,z
   ENINI  =  400.0     initial cutoff
   ENAUG  =  605.4 eV  augmentation charge cutoff
   NELM   =    100;   NELMIN=  5; NELMDL=-12     # of ELM steps
   EDIFF  = 0.1E-05   stopping-criterion for ELM
   LREAL  =      T    real-space projection
   NLSPLINE    = F    spline interpolate recip. space projectors
   LCOMPAT=      F    compatible to vasp.4.4
   GGA_COMPAT  = T    GGA compatible to vasp.4.4-vasp.4.6
   LMAXPAW     = -100 max onsite density
   LMAXMIX     =    2 max onsite mixed and CHGCAR
   VOSKOWN=      0    Vosko Wilk Nusair interpolation
   ROPT   =   -0.00025  -0.00025  -0.00025  -0.00025
 Ionic relaxation
   EDIFFG = -.5E-02   stopping-criterion for IOM
   NSW    =      0    number of steps for IOM
   NBLOCK =      1;   KBLOCK =      1    inner block; outer block
   IBRION =     -1    ionic relax: 0-MD 1-quasi-New 2-CG
   NFREE  =      2    steps in history (QN), initial steepest desc. (CG)
   ISIF   =      2    stress and relaxation
   IWAVPR =     10    prediction:  0-non 1-charg 2-wave 3-comb
   ISYM   =      0    0-nonsym 1-usesym 2-fastsym
   LCORR  =      T    Harris-Foulkes like correction to forces

   POTIM  = 0.0150    time-step for ionic-motion
   TEIN   =    0.0    initial temperature
   TEBEG  =    0.0;   TEEND  =   0.0 temperature during run
   SMASS  =  -3.00    Nose mass-parameter (am)
   estimated Nose-frequenzy (Omega)   =  0.10E-29 period in steps =****** mass=  -0.198E-26a.u.
   SCALEE = 1.0000    scale energy and forces
   NPACO  =    256;   APACO  = 16.0  distance and # of slots for P.C.
   PSTRESS=    0.0 pullay stress

  Mass of Ions in am
   POMASS =  26.98 63.55 16.00 28.09
  Ionic Valenz
   ZVAL   =   3.00 11.00  6.00  4.00
  Atomic Wigner-Seitz radii
  virtual crystal weights
   VCA    =   1.00  1.00  1.00  1.00
   NELECT =     407.0000    total number of electrons
   NUPDOWN=      -1.0000    fix difference up-down

 DOS related values:
   EMIN   =  10.00;   EMAX   =-10.00  energy-range for DOS
   EFERMI =   0.00
   ISMEAR =     0;   SIGMA  =   0.20  broadening in eV -4-tet -1-fermi 0-gaus

 Electronic relaxation 2 (details)
   IALGO  =     48    algorithm
   LDIAG  =      T    sub-space diagonalisation (order eigenvalues)
   LSUBROT=      F    optimize rotation matrix (better conditioning)
   TURBO    =      0    0=normal 1=particle mesh
   IRESTART =      0    0=no restart 2=restart with 2 vectors
   NREBOOT  =      0    no. of reboots
   NMIN     =      0    reboot dimension
   EREF     =   0.00    reference energy to select bands
   IMIX   =      4    mixing-type and parameters
     AMIX     =   0.40;   BMIX     =  1.00
     AMIX_MAG =   1.60;   BMIX_MAG =  1.00
     AMIN     =   0.10
     WC   =   100.;   INIMIX=   1;  MIXPRE=   1;  MAXMIX= -45

 Intra band minimization:
   WEIMIN = 0.0000     energy-eigenvalue tresh-hold
   EBREAK =  0.10E-08  absolut break condition
   DEPER  =   0.30     relativ break condition

   TIME   =   0.40     timestep for ELM

  volume/ion in A,a.u.               =      21.26       143.49
  Fermi-wavevector in a.u.,A,eV,Ry     =   1.038441  1.962368 14.671964  1.078359
  Thomas-Fermi vector in A             =   2.172925

 Write flags
   LWAVE        =      F    write WAVECAR
   LDOWNSAMPLE  =      F    k-point downsampling of WAVECAR
   LCHARG       =      F    write CHGCAR
   LVTOT        =      F    write LOCPOT, total local potential
   LVHAR        =      F    write LOCPOT, Hartree potential only
   LELF         =      F    write electronic localiz. function (ELF)
   LORBIT       =      0    0 simple, 1 ext, 2 COOP (PROOUT), +10 PAW based schemes

 Dipole corrections
   LMONO  =      F    monopole corrections only (constant potential shift)
   LDIPOL =      F    correct potential (dipole corrections)
   IDIPOL =      0    1-x, 2-y, 3-z, 4-all directions
   EPSILON=  1.0000000 bulk dielectric constant

 Exchange correlation treatment:
   GGA     =    PE    GGA type
   VOSKOWN=      0    Vosko Wilk Nusair interpolation
   LHFCALC =     F    Hartree Fock is set to
   LHFONE  =     F    Hartree Fock one center treatment
   AEXX    =    0.0000 exact exchange contribution

 Linear response parameters
   LEPSILON=     F    determine dielectric tensor
   LRPA    =     F    only Hartree local field effects (RPA)
   LNABLA  =     F    use nabla operator in PAW spheres
   LVEL    =     F    velocity operator in full k-point grid
   LINTERFAST=   F  fast interpolation
   KINTER  =     0    interpolate to denser k-point grid
   CSHIFT  =0.1000    complex shift for real part using Kramers Kronig
   OMEGAMAX=  -1.0    maximum frequency
   DEG_THRESHOLD= 0.2000000E-02 threshold for treating states as degnerate
   RTIME   =   -0.100 relaxation time in fs
  (WPLASMAI=    0.000 imaginary part of plasma frequency in eV, 0.658/RTIME)
   DFIELD  = 0.0000000 0.0000000 0.0000000 field for delta impulse in time

 Orbital magnetization related:
   ORBITALMAG=     F  switch on orbital magnetization
   LCHIMAG   =     F  perturbation theory with respect to B field
   DQ        =  0.001000  dq finite difference perturbation B field
   LLRAUG    =     F  two centre corrections for induced B field

 Static calculation
[...]

  length of vectors
     9.300494315  9.300494315 18.497000000     0.107878134  0.107878134  0.054062821

 FORCES acting on ions
    electron-ion (+dipol)            ewald-force                    non-local-force                 convergence-correction
   -.534E+02 -.187E+02 0.558E+02   0.529E+02 0.186E+02 -.557E+02   0.102E+01 0.340E+00 -.367E+00   -.828E-05 -.237E-04 -.538E-03
   -.401E+02 -.186E+02 0.833E+01   0.388E+02 0.195E+02 -.906E+01   0.124E+01 -.641E+00 -.318E-01   -.192E-03 0.406E-03 0.729E-03
   -.467E+02 -.515E+02 -.605E+02   0.480E+02 0.499E+02 0.627E+02   -.215E-01 0.114E+01 -.552E+00   0.455E-03 -.174E-03 0.759E-03
   -.391E+02 -.223E+02 0.418E+02   0.379E+02 0.230E+02 -.444E+02   0.913E+00 -.145E+00 0.114E+01   -.103E-03 0.134E-03 -.635E-03
   -.446E+02 -.150E+02 -.797E+02   0.445E+02 0.151E+02 0.795E+02   0.596E+00 0.625E-01 0.925E+00   -.306E-03 0.462E-06 0.699E-04
   0.509E+02 -.474E+01 0.270E+02   -.541E+02 0.239E+01 -.329E+02   0.228E+01 0.163E+01 0.507E+01   0.118E-02 0.514E-03 0.448E-02
   -.116E+03 -.104E+03 -.356E+00   0.109E+03 0.974E+02 0.709E+01   0.615E+01 0.625E+01 -.699E+01   0.103E-02 0.131E-02 -.134E-02
   0.206E+02 0.178E+03 0.215E+02   -.204E+02 -.198E+03 -.247E+02   -.715E+00 0.195E+02 0.277E+01   -.228E-03 0.267E-03 0.218E-03
   -.306E+01 -.195E+03 -.638E+02   0.347E+01 0.215E+03 0.603E+02   -.890E+00 -.195E+02 0.326E+01   0.353E-03 0.242E-03 -.442E-03
   -.234E+02 -.188E+03 0.648E+02   0.302E+02 0.205E+03 -.615E+02   -.114E+02 -.157E+02 -.297E+01   0.175E-04 0.552E-04 -.776E-03
   -.427E+01 0.172E+03 -.250E+02   0.108E+02 -.189E+03 0.284E+02   -.111E+02 0.157E+02 -.294E+01   0.561E-04 0.475E-03 0.114E-02
   -.196E+03 -.112E+03 -.291E+02   0.211E+03 0.116E+03 0.361E+02   -.143E+02 -.373E+01 -.115E+02   -.661E-03 0.831E-03 0.110E-02
   0.179E+03 0.102E+03 0.300E+01   -.197E+03 -.987E+02 -.249E+01   0.178E+02 -.277E+01 -.941E+00   0.850E-03 -.696E-03 0.805E-03
   -.230E+03 0.237E+01 -.215E+02   0.246E+03 -.519E+01 0.283E+02   -.150E+02 0.249E+01 -.111E+02   0.167E-03 0.134E-03 -.861E-03
   0.232E+03 0.824E+01 -.304E+00   -.250E+03 -.117E+02 0.418E+00   0.180E+02 0.336E+01 -.220E+00   0.733E-04 0.452E-04 -.570E-03
   -.131E+03 -.157E+03 -.107E+03   0.138E+03 0.167E+03 0.120E+03   -.758E+01 -.969E+01 -.130E+02   -.209E-03 0.123E-03 0.536E-04
   0.267E+02 -.430E+02 -.385E+02   -.330E+02 0.518E+02 0.498E+02   0.598E+01 -.821E+01 -.108E+02   0.879E-03 -.852E-03 -.550E-03
   -.118E+03 0.127E+03 -.212E+03   0.126E+03 -.137E+03 0.224E+03   -.774E+01 0.896E+01 -.129E+02   0.177E-03 0.422E-03 -.155E-03
   0.124E+03 0.137E+03 -.201E+03   -.132E+03 -.148E+03 0.213E+03   0.747E+01 0.106E+02 -.120E+02   -.509E-04 -.110E-04 -.255E-03
   0.120E+03 0.135E+03 0.203E+03   -.127E+03 -.145E+03 -.216E+03   0.663E+01 0.968E+01 0.124E+02   0.231E-04 0.763E-04 -.711E-03
   -.116E+03 0.110E+03 0.220E+03   0.123E+03 -.113E+03 -.234E+03   -.623E+01 -.992E+00 0.166E+02   -.646E-05 0.165E-04 -.968E-03
   -.117E+02 -.301E+02 0.128E+02   0.100E+02 0.406E+02 -.166E+02   0.330E+00 -.118E+02 -.163E+00   0.130E-02 -.795E-03 0.167E-02
   -.129E+03 -.137E+03 0.112E+03   0.135E+03 0.141E+03 -.126E+03   -.554E+01 0.128E+00 0.165E+02   -.228E-03 -.339E-04 0.143E-02
   -.540E+02 -.372E+02 -.166E+01   0.597E+02 0.303E+02 0.365E+01   -.640E+01 0.722E+01 0.209E+01   -.862E-03 0.128E-02 -.677E-03
   0.118E+03 0.158E+03 -.118E+03   -.125E+03 -.168E+03 0.130E+03   0.634E+01 0.105E+02 -.126E+02   0.258E-03 -.191E-03 -.238E-03
   -.130E+03 -.132E+03 -.206E+03   0.139E+03 0.144E+03 0.212E+03   -.108E+02 -.140E+02 -.265E+01   -.493E-04 0.191E-03 -.378E-03
   0.118E+03 -.112E+03 -.225E+03   -.124E+03 0.122E+03 0.238E+03   0.594E+01 -.107E+02 -.120E+02   0.206E-03 0.145E-03 -.319E-03
   0.118E+03 -.112E+03 0.226E+03   -.124E+03 0.122E+03 -.239E+03   0.553E+01 -.999E+01 0.131E+02   0.140E-03 0.108E-04 -.699E-03
   -.107E+03 -.105E+03 0.236E+03   0.109E+03 0.109E+03 -.251E+03   0.464E+00 -.139E+01 0.178E+02   -.676E-04 0.255E-05 -.103E-02
   0.116E+03 0.163E+03 0.116E+03   -.121E+03 -.173E+03 -.128E+03   0.539E+01 0.101E+02 0.125E+02   0.351E-03 -.123E-03 0.116E-02
   -.459E+02 -.508E+02 0.520E+02   0.467E+02 0.500E+02 -.650E+02   0.233E+01 -.304E+01 0.147E+02   -.644E-03 0.135E-02 0.184E-02
   0.870E+02 0.667E+02 -.790E+01   -.957E+02 -.652E+02 0.220E+02   0.589E+01 -.385E+01 -.159E+02   -.368E-03 0.449E-04 -.116E-02
   -.663E+02 0.965E+02 -.654E+02   0.799E+02 -.996E+02 0.777E+02   -.133E+02 0.315E+01 -.120E+02   -.331E-04 0.222E-03 -.562E-03
   0.564E+02 -.857E+02 -.204E+03   -.644E+02 0.847E+02 0.219E+03   0.527E+01 0.342E+01 -.169E+02   -.214E-03 -.180E-03 0.362E-03
   -.104E+03 -.857E+02 -.218E+03   0.119E+03 0.917E+02 0.224E+03   -.167E+02 -.807E+01 -.339E+01   0.501E-03 -.779E-04 0.666E-03
   -.888E+02 -.791E+02 0.228E+03   0.102E+03 0.821E+02 -.242E+03   -.130E+02 -.279E+01 0.130E+02   0.238E-03 -.248E-03 -.897E-03
   0.699E+02 -.961E+02 0.198E+03   -.831E+02 0.984E+02 -.211E+03   0.126E+02 -.196E+01 0.129E+02   -.198E-03 0.130E-03 -.625E-03
   -.629E+02 0.997E+02 0.655E+02   0.763E+02 -.103E+03 -.778E+02   -.130E+02 0.355E+01 0.118E+02   -.311E-03 0.798E-04 0.619E-03
   0.105E+03 0.705E+02 -.382E+01   -.118E+03 -.727E+02 -.806E+01   0.132E+02 0.196E+01 0.115E+02   0.462E-04 0.638E-03 0.106E-02
   0.947E+01 0.252E+03 0.364E+02   -.888E+01 -.271E+03 -.309E+02   -.970E+00 0.178E+02 -.543E+01   -.615E-04 0.174E-03 -.880E-03
   -.255E+02 -.243E+03 -.120E+03   0.197E+02 0.258E+03 0.125E+03   0.981E+01 -.141E+02 -.523E+01   0.534E-03 -.601E-03 0.116E-02
   -.380E+02 -.250E+03 0.119E+03   0.382E+02 0.269E+03 -.125E+03   -.363E+00 -.185E+02 0.617E+01   0.286E-03 -.337E-03 -.634E-03
   0.149E+02 0.255E+03 -.355E+02   -.154E+02 -.274E+03 0.300E+02   0.822E+00 0.188E+02 0.522E+01   -.104E-03 0.237E-03 0.423E-03
   0.108E+03 0.121E+03 0.224E+03   -.116E+03 -.129E+03 -.236E+03   0.817E+01 0.747E+01 0.124E+02   0.853E-04 -.117E-04 -.911E-03
   -.100E+03 0.115E+03 0.206E+03   0.108E+03 -.125E+03 -.219E+03   -.720E+01 0.994E+01 0.123E+02   -.176E-04 0.153E-03 -.869E-03
   0.976E+02 -.102E+03 0.878E+02   -.106E+03 0.110E+03 -.999E+02   0.881E+01 -.728E+01 0.118E+02   -.110E-03 -.719E-03 0.108E-02
   -.209E+03 -.167E+03 -.110E+03   0.225E+03 0.173E+03 0.108E+03   -.179E+02 -.320E+01 -.437E+00   0.504E-03 0.275E-03 0.224E-02
   -.165E+03 -.161E+03 0.928E+02   0.169E+03 0.175E+03 -.900E+02   -.810E+00 -.160E+02 0.611E-01   0.619E-03 -.107E-03 -.164E-02
   0.967E+02 -.108E+03 -.899E+02   -.105E+03 0.117E+03 0.102E+03   0.765E+01 -.850E+01 -.120E+02   0.164E-03 -.148E-03 -.441E-03
   -.812E+02 0.128E+03 -.200E+03   0.826E+02 -.140E+03 0.210E+03   0.214E+01 0.154E+02 -.932E+01   -.633E-03 -.158E-03 0.775E-04
   0.108E+03 0.125E+03 -.226E+03   -.115E+03 -.134E+03 0.239E+03   0.699E+01 0.865E+01 -.122E+02   0.301E-03 0.118E-03 0.232E-03
   0.253E+03 0.205E+02 0.770E+02   -.273E+03 -.206E+02 -.773E+02   0.189E+02 0.151E-01 0.404E+00   0.245E-03 -.166E-03 -.687E-03
   -.247E+03 -.107E+02 0.839E+02   0.264E+03 0.552E+01 -.808E+02   -.153E+02 0.829E+01 -.554E+01   -.953E-04 0.200E-03 -.985E-03
   0.252E+03 0.251E+02 -.791E+02   -.271E+03 -.249E+02 0.792E+02   0.183E+02 -.452E+00 -.204E+00   0.335E-03 -.177E-03 0.599E-03
   -.248E+03 -.493E+02 -.105E+03   0.264E+03 0.552E+02 0.110E+03   -.153E+02 -.948E+01 -.733E+01   -.580E-03 0.335E-03 0.797E-03
   0.375E+03 0.281E+03 0.339E+01   -.392E+03 -.296E+03 -.361E+01   0.195E+02 0.172E+02 0.122E+01   -.128E-02 -.105E-02 0.732E-03
   -.488E+02 -.272E+02 -.139E+02   0.492E+02 0.275E+02 0.168E+02   0.539E-01 0.938E-01 -.137E+01   -.387E-03 0.441E-03 0.278E-03
   0.491E+02 0.635E+02 -.148E+02   -.478E+02 -.641E+02 0.147E+02   -.128E+01 -.259E+00 0.434E+00   0.291E-03 -.288E-03 0.651E-04
   -.706E+02 -.265E+02 -.746E+02   0.721E+02 0.279E+02 0.756E+02   -.414E+00 -.767E+00 -.388E+00   0.262E-03 0.281E-03 -.270E-03
   0.692E+02 -.228E+02 -.739E+02   -.682E+02 0.224E+02 0.730E+02   -.122E+01 0.637E+00 0.809E+00   0.108E-03 0.105E-03 -.231E-03
   0.685E+02 -.217E+02 0.741E+02   -.648E+02 0.224E+02 -.734E+02   -.295E+01 -.142E+00 -.783E+00   0.944E-04 0.538E-04 -.478E-03
   0.431E+02 0.680E+02 0.136E+02   -.395E+02 -.681E+02 -.126E+02   -.267E+01 -.847E+00 -.109E+01   0.510E-03 -.173E-03 0.811E-03
   0.118E+02 0.842E+02 0.764E+02   -.105E+02 -.807E+02 -.760E+02   -.973E+00 -.310E+01 -.366E+00   -.505E-04 0.733E-04 -.697E-03
   -.259E+01 0.864E+02 0.621E+02   0.222E+01 -.856E+02 -.620E+02   0.383E+00 -.115E+01 -.343E+00   -.152E-04 0.947E-04 -.503E-03
   -.562E+01 -.851E+02 -.211E+02   0.440E+01 0.825E+02 0.218E+02   0.671E+00 0.247E+01 -.614E+00   -.464E-04 -.443E-03 0.709E-03
   -.463E+02 -.699E+02 0.706E+02   0.460E+02 0.696E+02 -.715E+02   0.825E+00 0.354E+00 0.170E+00   0.346E-03 -.294E-03 -.659E-03
   -.427E+01 -.890E+02 0.205E+02   0.505E+01 0.874E+02 -.211E+02   -.512E+00 0.167E+01 0.525E+00   0.801E-05 -.522E-04 -.304E-03
   0.779E+00 0.876E+02 -.601E+02   -.267E+01 -.890E+02 0.606E+02   0.140E+01 0.389E+00 -.320E-01   -.227E-03 -.346E-04 0.149E-03
   0.132E+02 0.851E+02 -.768E+02   -.130E+02 -.842E+02 0.769E+02   -.178E+00 -.134E+01 0.222E+00   0.117E-03 0.252E-03 0.276E-03
   0.617E+02 0.254E+02 -.221E+02   -.610E+02 -.253E+02 0.205E+02   -.863E+00 -.239E+00 0.166E+01   0.111E-03 -.341E-04 -.326E-03
   0.591E+02 -.263E+01 -.118E+03   -.561E+02 0.421E+01 0.116E+03   -.228E+01 -.916E+00 0.230E+01   0.299E-03 0.795E-04 0.135E-03
   -.586E+02 -.169E+02 0.109E+03   0.581E+02 0.142E+02 -.109E+03   0.812E+00 0.206E+01 -.716E+00   -.863E-04 0.144E-03 -.580E-03
   0.591E+02 -.538E+01 0.116E+03   -.589E+02 0.520E+01 -.116E+03   -.578E+00 0.245E+00 -.129E+01   0.114E-03 -.599E-04 -.544E-03
   -.503E+02 -.412E+02 -.523E+02   0.502E+02 0.443E+02 0.540E+02   -.434E-01 -.148E+01 -.596E+00   -.123E-03 0.611E-03 0.110E-02
   0.615E+02 0.285E+02 0.208E+02   -.611E+02 -.284E+02 -.195E+02   -.648E+00 -.150E+00 -.151E+01   -.439E-04 -.171E-03 0.560E-03
   -.106E+02 -.144E+02 0.494E+01   0.924E-13 -.174E-12 0.501E-12   0.106E+02 0.144E+02 -.495E+01   0.503E-02 0.435E-02 0.358E-02

 POSITION                                       TOTAL-FORCE (eV/Angst)
      1.54003     -0.46520     15.41910         0.442969      0.278870     -0.259328
      1.54003      0.46520      6.17060        -0.023210      0.255757     -0.756057
      5.29573     -3.41776      8.12758         1.348585     -0.512897      1.589508
      3.10058     -1.20775      0.96369        -0.349329      0.565558     -1.506532
      3.10058      1.20775     10.21219         0.422852      0.189216      0.689913
      3.52448     -2.74728      6.08308        -0.865493     -0.736817     -0.831664
      3.48026     -2.34893      3.41992        -1.338882     -0.403111     -0.209129
      0.00274      0.00252      2.98542        -0.522699     -0.400224     -0.398620
      0.00274     -0.00252     12.23392        -0.478586      0.376803     -0.187800
      0.00274     -0.00252     15.51158        -4.500838      1.115742      0.294124
      0.00274      0.00252      6.26308        -4.584016     -1.046009      0.441555
      1.98180      0.55219      4.62425         1.216073      0.040682     -4.499878
     11.69520      0.55219      4.62425        -0.543818      0.227048     -0.422297
      1.98180     -0.55219     13.87275         1.000928     -0.331091     -4.280347
     11.69520     -0.55219     13.87275        -0.423072     -0.102070     -0.106019
      8.55086     -4.39354      2.39166         0.162425      0.340848      0.019767
      5.12614     -4.39354      2.39166        -0.372079      0.598520      0.520181
      8.55086      4.39354     11.64016         0.150970     -0.552471     -0.040284
      5.12614      4.39354     11.64016        -0.112747     -0.082660      0.350141
      5.12614      4.39354     16.10534        -0.300433     -0.435609     -0.192949
      8.55086      4.39354     16.10534         0.490457     -3.914648      1.957402
      5.12614     -4.39354      6.85684        -1.374505     -1.351753     -3.952850
      8.55086     -4.39354      6.85684         0.562394      3.780482      1.908385
      2.46733     -0.60892      2.31767        -0.731987      0.366246      4.087688
     11.20967     -0.60892      2.31767        -0.034310     -0.102897      0.286858
      2.46733      0.60892     11.56617        -1.889818     -1.795604      3.503491
     11.20967      0.60892     11.56617        -0.095881      0.038375      0.463959
     11.20967      0.60892     16.17933        -0.320470      0.326137     -0.043267
      2.46733      0.60892     16.17933         2.572608      2.836094      2.299355
     11.20967     -0.60892      6.93083        -0.359358     -0.256477     -0.177432
      2.46733     -0.60892      6.93083         3.093030     -3.834072      1.719782
      8.84218      4.18805      0.21457        -2.862859     -2.336847     -1.868536
      4.83482      4.18805      0.21457         0.337260      0.021599      0.419687
      8.84218     -4.18805      9.46307        -2.800295      2.385457     -2.018851
      4.83482     -4.18805      9.46307        -1.436124     -2.024978      3.394667
      4.83482     -4.18805     18.28243         0.496736      0.197474     -0.034655
      8.84218     -4.18805     18.28243        -0.593542      0.370042     -0.006047
      4.83482      4.18805      9.03393         0.384744      0.085571     -0.477197
      8.84218      4.18805      9.03393        -0.383129     -0.238078     -0.441572
      6.83850      2.98029     17.51296        -0.385639     -0.480767      0.091344
      6.83850     -2.98029      8.26446         3.972614      1.193264      0.086382
      6.83850     -2.98029      0.98404        -0.158725      0.351087     -0.093862
      6.83850      2.98029     10.23254         0.289862     -0.224117     -0.257958
      9.29215      2.10789     17.16707         0.078780     -0.659830     -0.188503
      4.38485      2.10789     17.16707         0.439937      0.167850     -0.223958
      9.29215     -2.10789      7.91857         0.296581      0.663208     -0.243361
      4.38485     -2.10789      7.91857        -2.748054      3.053094     -2.475500
      4.38485     -2.10789      1.32993         3.198301     -2.435032      2.816037
      9.29215     -2.10789      1.32993        -0.180400      0.271140      0.305455
      4.38485      2.10789     10.57843         3.565959      2.684888      0.841666
      9.29215      2.10789     10.57843        -0.423177     -0.137680      0.260789
     10.12645      0.00000      0.00000        -0.474721     -0.023524      0.101809
      3.55055      0.00000      0.00000         1.200603      3.152270     -2.443871
     10.12645      0.00000      9.24850        -0.618730     -0.191426     -0.128534
      3.55055      0.00000      9.24850         1.130938     -3.546579     -2.879135
      9.31100      2.84111      4.51627         2.357499      1.898052      0.998366
      1.54003      0.46520      3.07790         0.398739      0.365797      1.588800
     12.13697      0.46520      3.07790         0.036431     -0.811428      0.330615
      1.54003     -0.46520     12.32640         1.067863      0.662827      0.599026
     12.13697     -0.46520     12.32640        -0.188924      0.198138     -0.025075
     12.13697     -0.46520     15.41910         0.665919      0.552642     -0.018749
     12.13697      0.46520      6.17060         0.867152     -0.919678     -0.047710
      8.38127      3.41776     17.37608         0.321277      0.420861      0.003145
      5.29573      3.41776     17.37608         0.016963     -0.299022     -0.228989
      8.38127     -3.41776      8.12758        -0.545691     -0.094686      0.107796
      5.29573     -3.41776      1.12092         0.577008     -0.038909     -0.789600
      8.38127     -3.41776      1.12092         0.267561      0.062613     -0.100827
      5.29573      3.41776     10.36942        -0.477836     -0.956866      0.440998
      8.38127      3.41776     10.36942         0.016807     -0.393764      0.388009
     10.57642     -1.20775      0.96369        -0.172562     -0.133440      0.109509
     10.57642      1.20775     10.21219         0.701446      0.656453      0.013242
      3.10058      1.20775     17.53331         0.276566     -0.637633     -0.570821
     10.57642      1.20775     17.53331        -0.410522      0.071561     -0.575982
      3.10058     -1.20775      8.28481        -0.132679      1.688878      1.151233
     10.57642     -1.20775      8.28481        -0.211698     -0.068450     -0.176937
    total drift:                               -0.010592     -0.004124     -0.014018

  FREE ENERGIE OF THE ION-ELECTRON SYSTEM (eV)
  free  energy   TOTEN  =      -563.27108548 eV

  energy  without entropy=     -562.56269365  energy(sigma->0) =     -562.91688956