 vasp.5.4.4.18Apr17-6-g9f103f2a35 (build Dec 21 2018 14:18:36) complex

 executed on             LinuxIFC date 2022.03.31  16:53:15

 INCAR:
 POTCAR:  PAW_PBE Al 04Jan2001
 POTCAR:   PAW_PBE Cu 22Jun2005
 POTCAR:   PAW_PBE O 08Apr2002
 POTCAR:   PAW_PBE Si 05Jan2001

 POTCAR:  PAW_PBE Al 04Jan2001
   VRHFIN =Al: s2p1

   TITEL  = PAW_PBE Al 04Jan2001
   POMASS =   26.982; ZVAL   =    3.000    mass and valenz
   ENMAX  =  240.300; ENMIN  =  180.225 eV
   QCUT   =   -4.203; QGAM   =    8.405    optimization parameters

   Description
     l     E      TYP  RCUT    TYP  RCUT
     0   .000     23  1.900
     0   .000     23  1.900
     1   .000     23  1.900
     1  1.000     23  1.900
     2   .000      7  1.900

 POTCAR:   PAW_PBE Cu 22Jun2005
   VRHFIN =Cu: d10 p1

   TITEL  = PAW_PBE Cu 22Jun2005
   POMASS =   63.546; ZVAL   =   11.000    mass and valenz
   ENMAX  =  295.446; ENMIN  =  221.585 eV

 POTCAR:   PAW_PBE O 08Apr2002
   VRHFIN =O: s2p4

   TITEL  = PAW_PBE O 08Apr2002
   POMASS =   16.000; ZVAL   =    6.000    mass and valenz
   ENMAX  =  400.000; ENMIN  =  300.000 eV
   QCUT   =   -5.520; QGAM   =   11.041    optimization parameters

[...]

 POTCAR:   PAW_PBE Si 05Jan2001
   VRHFIN =Si: s2p2

   TITEL  = PAW_PBE Si 05Jan2001
   POMASS =   28.085; ZVAL   =    4.000    mass and valenz
   ENMAX  =  245.345; ENMIN  =  184.009 eV
   QCUT   =   -4.246; QGAM   =    8.493    optimization parameters

   Description
     l     E      TYP  RCUT    TYP  RCUT
     0   .000     23  1.900
     0   .000     23  1.900
     1   .000     23  1.900
     1   .000     23  1.900
     2   .000      7  1.900

 Optimization of the real space projectors (new method)

 maximal supplied QI-value         = 19.84
 optimisation between [QCUT,QGAM] = [ 10.12, 20.44] = [ 28.68,116.96] Ry
 Optimized for a Real-space Cutoff    1.26 Angstroem

   l    n(q)    QCUT    max X(q) W(low)/X(q) W(high)/X(q)  e(spline)
   0      8    10.119    13.410    0.28E-04    0.17E-04    0.51E-08
   0      8    10.119   140.052    0.10E-03    0.16E-03    0.42E-07
   1      7    10.119     9.624    0.38E-04    0.42E-05    0.15E-07
   1      7    10.119    53.353    0.23E-03    0.17E-03    0.13E-06
 Optimization of the real space projectors (new method)

[...]

   l    n(q)    QCUT    max X(q) W(low)/X(q) W(high)/X(q)  e(spline)
   0      9    10.150     4.192    0.32E-04    0.13E-04    0.13E-06
   0      9    10.150     8.473    0.18E-03    0.20E-03    0.43E-06
   1      9    10.150     2.474    0.32E-04    0.33E-04    0.64E-07
   1      9    10.150     3.912    0.13E-03    0.16E-03    0.33E-06
 Optimization of the real space projectors (new method)

 maximal supplied QI-value         = 19.84
 optimisation between [QCUT,QGAM] = [ 10.12, 20.44] = [ 28.68,116.96] Ry
 Optimized for a Real-space Cutoff    1.38 Angstroem

   l    n(q)    QCUT    max X(q) W(low)/X(q) W(high)/X(q)  e(spline)
   0      8    10.119     8.708    0.16E-04    0.67E-05    0.60E-08
   0      8    10.119   106.241    0.56E-04    0.11E-03    0.54E-07
   1      8    10.119     5.901    0.16E-04    0.16E-05    0.22E-07
   1      8    10.119    73.241    0.22E-03    0.17E-03    0.18E-06
PAW_PBE Al 04Jan2001                    :
 PAW_PBE Cu 22Jun2005                   :
 PAW_PBE O 08Apr2002                    :
 PAW_PBE Si 05Jan2001                   :

 POSCAR: Al Cu O Si
  positions in direct lattice
 exchange correlation table for  LEXCH =        8
   RHO(1)=    0.500       N(1)  =     2000
   RHO(2)=  100.500       N(2)  =     4000

 ion  position               nearest neighbor table
   1  0.651  0.743  0.593-  11 1.61  10 1.61   7 1.61   5 1.61   3 3.04   2 3.10  13 3.15  13 3.15
                            14 3.22
   2  0.651  0.058  0.907-  12 1.61   8 1.61   9 1.61   5 1.61   4 2.80   1 3.10  14 3.15  14 3.15
                            13 3.22
   3  0.225  0.565  0.953-   7 2.04  13 2.53   4 2.59   1 3.04
   4  0.482  0.340  0.987-   3 2.59   2 2.80
   5  0.602  0.852  0.750-   2 1.61   1 1.61
   6  0.398  0.148  0.250-  13 1.61  14 1.61
   7  0.500  0.810  0.310-   1 1.61  13 1.61   3 2.04
   8  0.000  0.190  0.190-  14 1.61   2 1.61
   9  0.500  0.190  0.690-  14 1.61   2 1.61
  10  0.000  0.810  0.810-   1 1.61  13 1.61
  11  0.500  0.500  0.500-   1 1.61  14 1.61
  12  0.500  0.000  0.000-   2 1.61  13 1.61
  13  0.349  0.942  0.093-  12 1.61  10 1.61   7 1.61   6 1.61   3 2.53  14 3.10   1 3.15   1 3.15
                             2 3.22
  14  0.349  0.257  0.407-  11 1.61   8 1.61   9 1.61   6 1.61  13 3.10   2 3.15   2 3.15   1 3.22

IMPORTANT INFORMATION: All symmetrisations will be switched off!
NOSYMM: (Re-)initialisation of all symmetry stuff for point group C_1.

 KPOINTS: Automatic

Automatic generation of k-mesh.
Space group operators:
 irot       det(A)        alpha          n_x          n_y          n_z        tau_x        tau_y        tau_z
    1     1.000000     0.000001     1.000000     0.000000     0.000000     0.000000     0.000000     0.000000

 Subroutine IBZKPT returns following result:

 Found      1 irreducible k-points:

 Following reciprocal coordinates:
            Coordinates               Weight
  0.000000  0.000000  0.000000      1.000000

 Following cartesian coordinates:
            Coordinates               Weight
  0.000000  0.000000  0.000000      1.000000

 SYSTEM =  ZEOLITE_so_energy
 POSCAR =  Al Cu O Si

 Startparameter for this run:
   NWRITE =      2    write-flag & timer
   PREC   = accura    normal or accurate (medium, high low for compatibility)
   ISTART =      0    job   : 0-new  1-cont  2-samecut
   ICHARG =      2    charge: 1-file 2-atom 10-const
   ISPIN  =      1    spin polarized calculation?
   LNONCOLLINEAR =      F non collinear calculations
   LSORBIT =      F    spin-orbit coupling
   INIWAV =      1    electr: 0-lowe 1-rand  2-diag
   LASPH  =      F    aspherical Exc in radial PAW
   METAGGA=      F    non-selfconsistent MetaGGA calc.

 Electronic Relaxation 1
   ENCUT  =  400.0 eV  29.40 Ry    5.42 a.u.  11.59 11.59 11.59*2*pi/ulx,y,z
   ENINI  =  400.0     initial cutoff
   ENAUG  =  605.4 eV  augmentation charge cutoff
   NELM   =    100;   NELMIN=  5; NELMDL=-12     # of ELM steps
   EDIFF  = 0.1E-05   stopping-criterion for ELM
   LREAL  =      T    real-space projection
   NLSPLINE    = F    spline interpolate recip. space projectors
   LCOMPAT=      F    compatible to vasp.4.4
   GGA_COMPAT  = T    GGA compatible to vasp.4.4-vasp.4.6
   LMAXPAW     = -100 max onsite density
   LMAXMIX     =    2 max onsite mixed and CHGCAR
   VOSKOWN=      0    Vosko Wilk Nusair interpolation
   ROPT   =   -0.00025  -0.00025  -0.00025  -0.00025
 Ionic relaxation
   EDIFFG = -.5E-02   stopping-criterion for IOM
   NSW    =      0    number of steps for IOM
   NBLOCK =      1;   KBLOCK =      1    inner block; outer block
   IBRION =     -1    ionic relax: 0-MD 1-quasi-New 2-CG
   NFREE  =      2    steps in history (QN), initial steepest desc. (CG)
   ISIF   =      2    stress and relaxation
   IWAVPR =     10    prediction:  0-non 1-charg 2-wave 3-comb
   ISYM   =      0    0-nonsym 1-usesym 2-fastsym
   LCORR  =      T    Harris-Foulkes like correction to forces

   POTIM  = 0.0150    time-step for ionic-motion
   TEIN   =    0.0    initial temperature
   TEBEG  =    0.0;   TEEND  =   0.0 temperature during run
   SMASS  =  -3.00    Nose mass-parameter (am)
   estimated Nose-frequenzy (Omega)   =  0.10E-29 period in steps =****** mass=  -0.115E-26a.u.
   SCALEE = 1.0000    scale energy and forces
   NPACO  =    256;   APACO  = 16.0  distance and # of slots for P.C.
   PSTRESS=    0.0 pullay stress

  Mass of Ions in am
   POMASS =  26.98 63.55 16.00 28.09
  Ionic Valenz
   ZVAL   =   3.00 11.00  6.00  4.00
  Atomic Wigner-Seitz radii
  virtual crystal weights
   VCA    =   1.00  1.00  1.00  1.00
   NELECT =      84.0000    total number of electrons
   NUPDOWN=      -1.0000    fix difference up-down

 DOS related values:
   EMIN   =  10.00;   EMAX   =-10.00  energy-range for DOS
   EFERMI =   0.00
   ISMEAR =     0;   SIGMA  =   0.20  broadening in eV -4-tet -1-fermi 0-gaus

 Electronic relaxation 2 (details)
   IALGO  =     48    algorithm
   LDIAG  =      T    sub-space diagonalisation (order eigenvalues)
   LSUBROT=      F    optimize rotation matrix (better conditioning)
   TURBO    =      0    0=normal 1=particle mesh
   IRESTART =      0    0=no restart 2=restart with 2 vectors
   NREBOOT  =      0    no. of reboots
   NMIN     =      0    reboot dimension
   EREF     =   0.00    reference energy to select bands
   IMIX   =      4    mixing-type and parameters
     AMIX     =   0.40;   BMIX     =  1.00
     AMIX_MAG =   1.60;   BMIX_MAG =  1.00
     AMIN     =   0.10
     WC   =   100.;   INIMIX=   1;  MIXPRE=   1;  MAXMIX= -45

 Intra band minimization:
   WEIMIN = 0.0000     energy-eigenvalue tresh-hold
   EBREAK =  0.50E-08  absolut break condition
   DEPER  =   0.30     relativ break condition

   TIME   =   0.40     timestep for ELM

  volume/ion in A,a.u.               =      16.25       109.64
  Fermi-wavevector in a.u.,A,eV,Ry     =   1.174532  2.219544 18.769595  1.379526
  Thomas-Fermi vector in A             =   2.310928

 Write flags
   LWAVE        =      F    write WAVECAR
   LDOWNSAMPLE  =      F    k-point downsampling of WAVECAR
   LCHARG       =      F    write CHGCAR
   LVTOT        =      F    write LOCPOT, total local potential
   LVHAR        =      F    write LOCPOT, Hartree potential only
   LELF         =      F    write electronic localiz. function (ELF)
   LORBIT       =      0    0 simple, 1 ext, 2 COOP (PROOUT), +10 PAW based schemes

 Dipole corrections
   LMONO  =      F    monopole corrections only (constant potential shift)
   LDIPOL =      F    correct potential (dipole corrections)
   IDIPOL =      0    1-x, 2-y, 3-z, 4-all directions
   EPSILON=  1.0000000 bulk dielectric constant

 Exchange correlation treatment:
   GGA     =    PE    GGA type
   VOSKOWN=      0    Vosko Wilk Nusair interpolation
   LHFCALC =     F    Hartree Fock is set to
   LHFONE  =     F    Hartree Fock one center treatment
   AEXX    =    0.0000 exact exchange contribution

 Linear response parameters
   LEPSILON=     F    determine dielectric tensor
   LRPA    =     F    only Hartree local field effects (RPA)
   LNABLA  =     F    use nabla operator in PAW spheres
   LVEL    =     F    velocity operator in full k-point grid
   LINTERFAST=   F  fast interpolation
   KINTER  =     0    interpolate to denser k-point grid
   CSHIFT  =0.1000    complex shift for real part using Kramers Kronig
   OMEGAMAX=  -1.0    maximum frequency
   DEG_THRESHOLD= 0.2000000E-02 threshold for treating states as degnerate
   RTIME   =   -0.100 relaxation time in fs
  (WPLASMAI=    0.000 imaginary part of plasma frequency in eV, 0.658/RTIME)
   DFIELD  = 0.0000000 0.0000000 0.0000000 field for delta impulse in time

 Orbital magnetization related:
   ORBITALMAG=     F  switch on orbital magnetization
   LCHIMAG   =     F  perturbation theory with respect to B field
   DQ        =  0.001000  dq finite difference perturbation B field
   LLRAUG    =     F  two centre corrections for induced B field

 Static calculation
 charge density and potential will be updated during run
 non-spin polarized calculation
 RMM-DIIS sequential band-by-band
 perform sub-space diagonalisation
    before iterative eigenvector-optimisation
 modified Broyden-mixing scheme, WC =      100.0
 initial mixing is a Kerker type mixing with AMIX =  0.4000 and BMIX =      1.0000
 Hartree-type preconditioning will be used
 using additional bands            8
 real space projection scheme for non local part
 use partial core corrections
 calculate Harris-corrections to forces
   (improved forces if not selfconsistent)
 use gradient corrections
 use of overlap-Matrix (Vanderbilt PP)
 Gauss-broadening in eV      SIGMA  =   0.20

  energy-cutoff  :      400.00
  volume of cell :      227.46
      direct lattice vectors                 reciprocal lattice vectors
    -4.936500000  2.627000000  4.385000000     0.000000000  0.190331176  0.114025086
     4.936500000 -2.627000000  4.385000000     0.101286336  0.000000000  0.114025086
     4.936500000  2.627000000 -4.385000000     0.101286336  0.190331176  0.000000000

  length of vectors
     7.106221658  7.106221658  7.106221658     0.221873110  0.152514400  0.215603522

 k-points in units of 2pi/SCALE and weight: Automatic
   0.00000000  0.00000000  0.00000000       1.000

 k-points in reciprocal lattice and weights: Automatic
   0.00000000  0.00000000  0.00000000       1.000

 position of ions in fractional coordinates (direct lattice)
   0.65070000  0.74350000  0.59280000
   0.65070000  0.05790000  0.90720000
   0.22523960  0.56456802  0.95263490
   0.48163061  0.34024143  0.98656296
   0.60230000  0.85230000  0.75000000
   0.39770000  0.14770000  0.25000000
   0.50000000  0.81000000  0.31000000
   0.00000000  0.19000000  0.19000000
   0.50000000  0.19000000  0.69000000
   0.00000000  0.81000000  0.81000000
   0.50000000  0.50000000  0.50000000
   0.50000000  0.00000000  0.00000000
   0.34930000  0.94210000  0.09280000
   0.34930000  0.25650000  0.40720000

 position of ions in cartesian coordinates  (Angst):
   3.38446440  1.31350000  3.51413900
   1.55203560  3.94050000 -0.87086100
   6.37777695  1.61115614 -0.71399765
   4.17220040  2.96313028 -0.72216969
   4.93650000  1.31350000  3.08967100
   0.00000000  1.31350000  1.29532900
   3.06063000 -0.00000000  4.38500000
   1.87587000  0.00000000  0.00000000
   1.87587000  2.62700000  0.00000000
   7.99713000  0.00000000  0.00000000
   2.46825000  1.31350000  2.19250000
  -2.46825000  1.31350000  2.19250000
   3.38446440 -1.31350000  5.25586100
   1.55203560  1.31350000  0.87086100

 k-point  1 :   0.0000 0.0000 0.0000  plane waves:    4159

 maximum and minimum number of plane-waves per node :       348      345

 maximum number of plane-waves:      4159
 maximum index in each direction:
   IXMAX=   11   IYMAX=   11   IZMAX=   11
   IXMIN=  -11   IYMIN=  -11   IZMIN=  -11

 real space projection operators:
  max/ min on nodes  :        576.31        535.61

 parallel 3D FFT for wavefunctions:
    minimum data exchange during FFTs selected (reduces bandwidth)
 parallel 3D FFT for charge:
    minimum data exchange during FFTs selected (reduces bandwidth)

 Broyden mixing: mesh for mixing (old mesh)
   NGX = 23   NGY = 23   NGZ = 23
  (NGX  = 96   NGY  = 96   NGZ  = 96)
  gives a total of  12167 points

 initial charge density was supplied:
 charge density of overlapping atoms calculated
 number of electron      84.0000000 magnetization
 keeping initial charge density in first step

 Maximum index for non-local projection operator          649
 Maximum index for augmentation-charges         1508 (set IRDMAX)

 First call to EWALD:  gamma=   0.290
 Maximum number of real-space cells 4x 3x 3
 Maximum number of reciprocal cells 3x 3x 3

--------------------------------------- Iteration      1(   1)  ---------------------------------------

 eigenvalue-minimisations  :    50
 total energy-change (2. order) : 0.1009296E+04  (-0.2976977E+04)
 number of electron      84.0000000 magnetization
 augmentation part       84.0000000 magnetization

 Free energy of the ion-electron system (eV)
  alpha Z        PSCENC =       122.90225072
  Ewald energy   TEWEN  =     -3356.97750991
  -Hartree energ DENC   =     -2913.57701122
  -exchange      EXHF   =         0.00000000
  -V(xc)+E(xc)   XCENC  =       243.09499514
  PAW double counting   =      4561.46425865    -4688.84813308
  entropy T*S    EENTRO =        -0.23377298
  eigenvalues    EBANDS =       488.24244691
  atomic energy  EATOM  =      6553.22864978
  Solvation  Ediel_sol  =         0.00000000
  free energy    TOTEN  =      1009.29617399 eV

  energy without entropy =     1009.52994698  energy(sigma->0) =     1009.41306049

[...]

 eigenvalue-minimisations  :    50
 total energy-change (2. order) :-0.6391666E+03  (-0.8179760E+03)
 number of electron      84.0000000 magnetization
 augmentation part       84.0000000 magnetization

[...]

 Broyden mixing:
  rms(total) = 0.28670E+01    rms(broyden)= 0.28655E+01
  rms(prec ) = 0.50773E+01
  weight for this iteration     100.00

[...]

 eigenvalues of (default mixing * dielectric matrix)
  average eigenvalue GAMMA=   0.6602
  0.6602

[...]

 eigenvalue-minimisations  :    85
 total energy-change (2. order) :-0.1348137E-05  (-0.4280744E-06)
 number of electron      84.0000006 magnetization
 augmentation part       19.3947745 magnetization

 Broyden mixing:
  rms(total) = 0.58074E-03    rms(broyden)= 0.57689E-03
  rms(prec ) = 0.10446E-02
  weight for this iteration     100.00

 eigenvalues of (default mixing * dielectric matrix)
  average eigenvalue GAMMA=   1.1414
  3.4228  2.5250  2.1246  2.1246  1.1621  1.1621  0.9389  0.9389  0.8571  0.8571
  0.7918  0.7918  0.8136  0.4463  0.4463  0.5980  0.2516  0.2923

[...]

--------------------------------------- Iteration      1(  31)  ---------------------------------------

 eigenvalue-minimisations  :    68
 total energy-change (2. order) : 0.1930312E-07  (-0.7241906E-07)
 number of electron      84.0000006 magnetization
 augmentation part       19.3947745 magnetization

 Free energy of the ion-electron system (eV)
  alpha Z        PSCENC =       122.90225072
  Ewald energy   TEWEN  =     -3356.97750991
  -Hartree energ DENC   =     -3110.25057353
  -exchange      EXHF   =         0.00000000
  -V(xc)+E(xc)   XCENC  =       255.88493757
  PAW double counting   =      5204.56571975    -5336.32524707
  entropy T*S    EENTRO =        -0.17195132
  eigenvalues    EBANDS =      -423.18083965
  atomic energy  EATOM  =      6553.22864978
  Solvation  Ediel_sol  =         0.00000000
  free energy    TOTEN  =       -90.32456365 eV

  energy without entropy =      -90.15261233  energy(sigma->0) =      -90.23858799

 average (electrostatic) potential at core
  the test charge radii are     1.0406  0.9430  0.7215  0.9892
  (the norm of the test charge is              1.0000)
       1 -75.7378       2 -75.4899       3 -69.2690       4 -68.8959       5 -71.8233
       6 -74.4419       7 -74.3902       8 -72.6786       9 -73.5553      10 -73.4555
      11 -73.0416      12 -73.6635      13 -87.8857      14 -87.3518

 E-fermi :   0.6258     XC(G=0):  -8.0828     alpha+bet : -8.2950

 k-point     1 :       0.0000    0.0000    0.0000
  band No.  band energies     occupation
      1     -19.3879      2.00000
      2     -18.4831      2.00000
      3     -17.7913      2.00000
      4     -17.5804      2.00000
      5     -17.2940      2.00000
      6     -16.8450      2.00000
      7     -16.4608      2.00000
      8     -15.4912      2.00000
      9      -8.0233      2.00000
     10      -7.5108      2.00000
     11      -6.2262      2.00000
     12      -5.0976      2.00000
     13      -4.9849      2.00000
     14      -4.7918      2.00000
     15      -4.1511      2.00000
     16      -4.0894      2.00000
     17      -3.4910      2.00000
     18      -3.0982      2.00000
     19      -2.9210      2.00000
     20      -2.5514      2.00000
     21      -2.2346      2.00000
     22      -2.0713      2.00000
     23      -1.8971      2.00000
     24      -1.7745      2.00000
     25      -1.5002      2.00000
     26      -1.4283      2.00000
     27      -1.2607      2.00000
     28      -0.8884      2.00000
     29      -0.8529      2.00000
     30      -0.7407      2.00000
     31      -0.6044      2.00000
     32      -0.4408      2.00000
     33      -0.3783      2.00000
     34      -0.2755      2.00000
     35      -0.1827      2.00000
     36      -0.1139      2.00000
     37      -0.0355      2.00000
     38       0.0352      1.99997
     39       0.1379      1.99944
     40       0.2635      1.98958
     41       0.3980      1.89272
     42       0.4667      1.73939
     43       0.7502      0.37890
     44       4.5624      0.00000
     45       6.1416      0.00000
     46       6.2141      0.00000
     47       7.0619      0.00000
     48       7.7071      0.00000
     49       7.9212      0.00000
     50       8.6442      0.00000

 soft charge-density along one line, spin component           1
         0         1         2         3         4         5         6         7         8         9
 total charge-density along one line

------------------------ aborting loop because EDIFF is reached ----------------------------------------

  DFT-D2 method for vdW energy calculation

  Parameters of vdW forcefield:
         C6(Jnm^6/mol)     R0(A)
   Al      10.790          1.639
   Cu      10.800          1.562
   O        0.700          1.342
   Si       9.230          1.716

  IVDW =   1
  VDW_RADIUS =    50.000 A
  VDW_S6 =     0.750
  VDW_SR =     1.000
  VDW_D =    20.000
  LVDW_EWALD = F

  Number of pair interactions contributing to vdW energy:  241418
  Edisp (eV):   -1.56971

  FORCE on cell =-STRESS in cart. coord.  units (eV):
  Direction    XX          YY          ZZ          XY          YZ          ZX
  Alpha Z   122.90225   122.90225   122.90225
  Ewald    -670.16346 -1318.67318 -1368.14955  -178.17047  -339.59162   264.16204
  Hartree  1337.09383   904.66961   868.49662  -137.13418  -258.36311   178.15820
  E(xc)    -422.52282  -423.47233  -423.23787    -0.14807    -0.23036     0.21164
  Local   -1783.85919  -718.76477  -631.66831   318.01937   594.50917  -435.86085
  n-local  -147.78190  -147.35673  -151.11325    -3.31932     0.66702     0.44748
  augment   227.86046   230.44529   232.96941    -0.09837    -0.61917    -1.10935
  Kinetic  1353.00247  1373.58559  1367.09673     1.07933     2.68262    -5.28996
  Fock        0.00000     0.00000     0.00000     0.00000     0.00000     0.00000
  vdW        -0.98706    -1.16069    -1.16636     0.03496    -0.10894     0.10069
  Total      15.54458    22.17505    16.12967     0.26323    -1.05438     0.81989
  in kB     109.49162   156.19470   113.61282     1.85411    -7.42677     5.77507

 VOLUME and BASIS-vectors are now :
  energy-cutoff  :      400.00
  volume of cell :      227.46
      direct lattice vectors                 reciprocal lattice vectors
    -4.936500000  2.627000000  4.385000000     0.000000000  0.190331176  0.114025086
     4.936500000 -2.627000000  4.385000000     0.101286336  0.000000000  0.114025086
     4.936500000  2.627000000 -4.385000000     0.101286336  0.190331176  0.000000000

  length of vectors
     7.106221658  7.106221658  7.106221658     0.221873110  0.152514400  0.215603522

 FORCES acting on ions
    electron-ion (+dipol)            ewald-force                    non-local-force                 convergence-correction
   -.132E+02 -.724E+01 0.151E+02   0.169E+02 0.830E+01 -.178E+02   -.276E+01 -.316E+00 0.142E+01   -.272E-02 -.244E-03 0.550E-03
   0.147E+02 -.977E+01 0.152E+02   -.188E+02 0.108E+02 -.157E+02   0.252E+01 -.261E+00 0.389E+00   0.205E-02 -.223E-03 -.297E-03
   0.217E+03 0.133E+03 0.647E+02   -.216E+03 -.126E+03 -.615E+02   -.552E+00 -.732E+01 -.328E+01   -.137E-01 0.203E-03 -.130E-02
   -.612E+02 -.652E+01 -.176E+03   0.630E+02 0.231E+01 0.175E+03   -.203E+01 0.400E+01 0.908E-01   0.125E-01 -.571E-02 -.221E-03
   -.655E+01 0.256E+01 0.131E+03   0.689E+01 -.110E+01 -.145E+03   -.411E+00 -.166E+01 0.123E+02   -.770E-03 -.942E-04 -.240E-02
   -.191E+02 -.340E+02 -.444E+02   0.201E+02 0.335E+02 0.593E+02   -.143E+01 0.745E+00 -.141E+02   -.165E-02 -.259E-03 0.626E-02
   -.421E+02 -.100E+03 -.410E+02   0.394E+02 0.111E+03 0.405E+02   0.595E+00 -.146E+02 0.226E+01   -.483E-02 -.800E-03 0.101E-02
   -.816E+02 0.305E+01 0.312E+02   0.929E+02 -.863E+01 -.352E+02   -.104E+02 0.926E+01 0.643E+01   0.388E-02 -.427E-03 0.115E-02
   -.120E+02 0.995E+00 0.268E+01   0.179E+02 0.471E+01 -.608E+01   -.380E+01 -.900E+01 0.537E+01   0.407E-02 0.114E-03 0.120E-02
   0.277E+02 0.844E+02 -.474E+01   -.359E+02 -.922E+02 0.236E+01   0.676E+01 0.124E+02 0.456E+01   -.504E-02 0.776E-03 0.119E-02
   -.664E+02 -.186E+02 0.214E+02   0.725E+02 0.189E+02 -.173E+02   -.934E+01 -.298E+00 -.738E+01   -.308E-02 -.756E-04 0.206E-02
   0.879E+02 -.346E+02 -.742E+01   -.959E+02 0.360E+02 0.113E+02   0.116E+02 -.168E+01 -.723E+01   0.323E-02 -.108E-03 -.164E-02
   -.131E+02 -.422E+01 -.216E+02   0.120E+02 0.255E+01 0.223E+02   0.103E+01 0.677E+00 0.967E-01   -.748E-03 0.326E-03 0.868E-03
   -.225E+02 -.150E+01 0.121E+02   0.255E+02 -.256E+00 -.122E+02   -.113E+01 0.741E+00 -.750E-01   -.149E-03 0.309E-03 0.254E-02
   0.936E+01 0.737E+01 -.854E+00   0.284E-13 0.245E-13 0.302E-13   -.935E+01 -.737E+01 0.847E+00   -.703E-02 -.622E-02 0.110E-01

 POSITION                                       TOTAL-FORCE (eV/Angst)
      3.38446      1.31350      3.51414         1.030957      0.832659     -1.242998
      1.55204      3.94050     -0.87086        -1.575135      0.822034     -0.136195
      6.37778      1.61116     -0.71400        -0.335807      0.123675     -0.141416
      4.17220      2.96313     -0.72217        -0.221900     -0.241060     -0.128206
      4.93650      1.31350      3.08967        -0.067085     -0.197637     -1.578042
      0.00000      1.31350      1.29533        -0.418490      0.216662      0.860824
      3.06063     -0.00000      4.38500        -2.071199     -4.123570      1.835733
      1.87587      0.00000      0.00000         0.846312      3.678983      2.445889
      1.87587      2.62700      0.00000         2.115130     -3.292251      1.978158
      7.99713      0.00000      0.00000        -1.433730      4.454181      2.194098
      2.46825      1.31350      2.19250        -3.236609     -0.009966     -3.300161
     -2.46825      1.31350      2.19250         3.628011     -0.269657     -3.374028
      3.38446     -1.31350      5.25586        -0.104845     -0.969056      0.744229
      1.55204      1.31350      0.87086         1.844390     -1.024995     -0.157886
    total drift:                               -0.000320     -0.000572      0.004496

  FREE ENERGIE OF THE ION-ELECTRON SYSTEM (eV)
  free  energy   TOTEN  =       -91.89427789 eV

  energy  without entropy=      -91.72232657  energy(sigma->0) =      -91.80830223