 vasp.5.4.4.18Apr17-6-g9f103f2a35 (build Dec 21 2018 14:18:36) complex

 executed on             LinuxIFC date 2022.04.06  16:07:00

 INCAR:
 POTCAR:  PAW_PBE Al 04Jan2001
 POTCAR:   PAW_PBE Cu 22Jun2005
 POTCAR:   PAW_PBE O 08Apr2002
 POTCAR:   PAW_PBE Si 05Jan2001
 POTCAR:  PAW_PBE H 15Jun2001

 POTCAR:  PAW_PBE Al 04Jan2001
   VRHFIN =Al: s2p1

   TITEL  = PAW_PBE Al 04Jan2001
   POMASS =   26.982; ZVAL   =    3.000    mass and valenz
   ENMAX  =  240.300; ENMIN  =  180.225 eV
   QCUT   =   -4.203; QGAM   =    8.405    optimization parameters

   Description
     l     E      TYP  RCUT    TYP  RCUT
     0   .000     23  1.900
     0   .000     23  1.900
     1   .000     23  1.900
     1  1.000     23  1.900
     2   .000      7  1.900

 POTCAR:   PAW_PBE Cu 22Jun2005
   VRHFIN =Cu: d10 p1

   TITEL  = PAW_PBE Cu 22Jun2005
   POMASS =   63.546; ZVAL   =   11.000    mass and valenz
   ENMAX  =  295.446; ENMIN  =  221.585 eV

 POTCAR:   PAW_PBE O 08Apr2002
   VRHFIN =O: s2p4

   TITEL  = PAW_PBE O 08Apr2002
   POMASS =   16.000; ZVAL   =    6.000    mass and valenz
   ENMAX  =  400.000; ENMIN  =  300.000 eV
   QCUT   =   -5.520; QGAM   =   11.041    optimization parameters

[...]

 POTCAR:   PAW_PBE Si 05Jan2001
   VRHFIN =Si: s2p2

   TITEL  = PAW_PBE Si 05Jan2001
   POMASS =   28.085; ZVAL   =    4.000    mass and valenz
   ENMAX  =  245.345; ENMIN  =  184.009 eV
   QCUT   =   -4.246; QGAM   =    8.493    optimization parameters

[...]

 POTCAR:  PAW_PBE H 15Jun2001
   VRHFIN =H: ultrasoft test

   TITEL  = PAW_PBE H 15Jun2001
   POMASS =    1.000; ZVAL   =    1.000    mass and valenz
   ENMAX  =  250.000; ENMIN  =  200.000 eV
   QCUT   =   -5.749; QGAM   =   11.498    optimization parameters

   Description
     l     E      TYP  RCUT    TYP  RCUT
     0   .000     23  1.100
     0   .500     23  1.100
     1  -.300     23  1.100

 Optimization of the real space projectors (new method)

 maximal supplied QI-value         = 19.84
 optimisation between [QCUT,QGAM] = [ 10.12, 20.44] = [ 28.68,116.96] Ry
 Optimized for a Real-space Cutoff    1.26 Angstroem

   l    n(q)    QCUT    max X(q) W(low)/X(q) W(high)/X(q)  e(spline)
   0      8    10.119    13.410    0.28E-04    0.17E-04    0.51E-08
   0      8    10.119   140.052    0.10E-03    0.16E-03    0.42E-07
   1      7    10.119     9.624    0.38E-04    0.42E-05    0.15E-07
   1      7    10.119    53.353    0.23E-03    0.17E-03    0.13E-06
 Optimization of the real space projectors (new method)

[...]

   l    n(q)    QCUT    max X(q) W(low)/X(q) W(high)/X(q)  e(spline)
   0      8    10.119     8.708    0.16E-04    0.67E-05    0.60E-08
   0      8    10.119   106.241    0.56E-04    0.11E-03    0.54E-07
   1      8    10.119     5.901    0.16E-04    0.16E-05    0.22E-07
   1      8    10.119    73.241    0.22E-03    0.17E-03    0.18E-06
 Optimization of the real space projectors (new method)

 maximal supplied QI-value         = 34.20
 optimisation between [QCUT,QGAM] = [  9.92, 20.18] = [ 27.55,114.04] Ry
 Optimized for a Real-space Cutoff    1.34 Angstroem

   l    n(q)    QCUT    max X(q) W(low)/X(q) W(high)/X(q)  e(spline)
   0      8     9.919     4.436    0.31E-04    0.59E-04    0.66E-07
   0      8     9.919    16.131    0.16E-03    0.20E-03    0.35E-06
   1      8     9.919     4.654    0.19E-03    0.46E-03    0.40E-06
PAW_PBE Al 04Jan2001                    :
 PAW_PBE Cu 22Jun2005                   :
 PAW_PBE O 08Apr2002                    :
 PAW_PBE Si 05Jan2001                   :
PAW_PBE H 15Jun2001                     :

 POSCAR: Al Cu O Si H
  positions in direct lattice
  velocities in cartesian coordinates
 exchange correlation table for  LEXCH =        8
   RHO(1)=    0.500       N(1)  =     2000
   RHO(2)=  100.500       N(2)  =     4000

 ion  position               nearest neighbor table
   1  0.418  0.329  0.625-  75 1.61  15 1.61  39 1.61  63 1.61 117 3.02 115 3.17 132 3.17 143 3.20

   2  0.671  0.089  0.625-  76 1.61  16 1.61  40 1.61  64 1.61 116 3.02 117 3.17 130 3.17 141 3.20

[...]

 147  0.752  0.752  0.500- 107 1.61 100 1.61  21 1.61  27 1.61 141 3.11 142 3.11
 148  0.708  0.370  0.399- 108 0.98

IMPORTANT INFORMATION: All symmetrisations will be switched off!
NOSYMM: (Re-)initialisation of all symmetry stuff for point group C_1.

 KPOINTS: Automatic

Automatic generation of k-mesh.
Space group operators:
 irot       det(A)        alpha          n_x          n_y          n_z        tau_x        tau_y        tau_z
    1     1.000000     0.000000     1.000000     0.000000     0.000000     0.000000     0.000000     0.000000

 Subroutine IBZKPT returns following result:

 Found      1 irreducible k-points:

 Following reciprocal coordinates:
            Coordinates               Weight
  0.000000  0.000000  0.000000      1.000000

 Following cartesian coordinates:
            Coordinates               Weight
  0.000000  0.000000  0.000000      1.000000

 SYSTEM =  ZEOLITE_AFG_energy_PRO
 POSCAR =  Al Cu O Si H

 Startparameter for this run:
   NWRITE =      2    write-flag & timer
   PREC   = accura    normal or accurate (medium, high low for compatibility)
   ISTART =      0    job   : 0-new  1-cont  2-samecut
   ICHARG =      2    charge: 1-file 2-atom 10-const
   ISPIN  =      1    spin polarized calculation?
   LNONCOLLINEAR =      F non collinear calculations
   LSORBIT =      F    spin-orbit coupling
   INIWAV =      1    electr: 0-lowe 1-rand  2-diag
   LASPH  =      F    aspherical Exc in radial PAW
   METAGGA=      F    non-selfconsistent MetaGGA calc.

 Electronic Relaxation 1
   ENCUT  =  400.0 eV  29.40 Ry    5.42 a.u.  20.46 20.46 33.90*2*pi/ulx,y,z
   ENINI  =  400.0     initial cutoff
   ENAUG  =  605.4 eV  augmentation charge cutoff
   NELM   =    100;   NELMIN=  5; NELMDL=-12     # of ELM steps
   EDIFF  = 0.1E-05   stopping-criterion for ELM
   LREAL  =      T    real-space projection
   NLSPLINE    = F    spline interpolate recip. space projectors
   LCOMPAT=      F    compatible to vasp.4.4
   GGA_COMPAT  = T    GGA compatible to vasp.4.4-vasp.4.6
   LMAXPAW     = -100 max onsite density
   LMAXMIX     =    2 max onsite mixed and CHGCAR
   VOSKOWN=      0    Vosko Wilk Nusair interpolation
   ROPT   =   -0.00025  -0.00025  -0.00025  -0.00025
   ROPT   =   -0.00025
 Ionic relaxation
   EDIFFG = -.5E-02   stopping-criterion for IOM
   NSW    =      0    number of steps for IOM
   NBLOCK =      1;   KBLOCK =      1    inner block; outer block
   IBRION =     -1    ionic relax: 0-MD 1-quasi-New 2-CG
   NFREE  =      2    steps in history (QN), initial steepest desc. (CG)
   ISIF   =      2    stress and relaxation
   IWAVPR =     10    prediction:  0-non 1-charg 2-wave 3-comb
   ISYM   =      0    0-nonsym 1-usesym 2-fastsym
   LCORR  =      T    Harris-Foulkes like correction to forces

   POTIM  = 0.0150    time-step for ionic-motion
   TEIN   =    0.0    initial temperature
   TEBEG  =    0.0;   TEEND  =   0.0 temperature during run
   SMASS  =  -3.00    Nose mass-parameter (am)
   estimated Nose-frequenzy (Omega)   =  0.10E-29 period in steps =****** mass=  -0.360E-26a.u.
   SCALEE = 1.0000    scale energy and forces
   NPACO  =    256;   APACO  = 16.0  distance and # of slots for P.C.
   PSTRESS=    0.0 pullay stress

  Mass of Ions in am
   POMASS =  26.98 63.55 16.00 28.09  1.00
  Ionic Valenz
   ZVAL   =   3.00 11.00  6.00  4.00  1.00
  Atomic Wigner-Seitz radii
  virtual crystal weights
   VCA    =   1.00  1.00  1.00  1.00  1.00
   NELECT =     788.0000    total number of electrons
   NUPDOWN=      -1.0000    fix difference up-down

 DOS related values:
   EMIN   =  10.00;   EMAX   =-10.00  energy-range for DOS
   EFERMI =   0.00
   ISMEAR =     0;   SIGMA  =   0.20  broadening in eV -4-tet -1-fermi 0-gaus

 Electronic relaxation 2 (details)
   IALGO  =     48    algorithm
   LDIAG  =      T    sub-space diagonalisation (order eigenvalues)
   LSUBROT=      F    optimize rotation matrix (better conditioning)
   TURBO    =      0    0=normal 1=particle mesh
   IRESTART =      0    0=no restart 2=restart with 2 vectors
   NREBOOT  =      0    no. of reboots
   NMIN     =      0    reboot dimension
   EREF     =   0.00    reference energy to select bands
   IMIX   =      4    mixing-type and parameters
     AMIX     =   0.40;   BMIX     =  1.00
     AMIX_MAG =   1.60;   BMIX_MAG =  1.00
     AMIN     =   0.10
     WC   =   100.;   INIMIX=   1;  MIXPRE=   1;  MAXMIX= -45

 Intra band minimization:
   WEIMIN = 0.0000     energy-eigenvalue tresh-hold
   EBREAK =  0.53E-09  absolut break condition
   DEPER  =   0.30     relativ break condition

   TIME   =   0.40     timestep for ELM

  volume/ion in A,a.u.               =      19.15       129.26
  Fermi-wavevector in a.u.,A,eV,Ry     =   1.068429  2.019039 15.531613  1.141541
  Thomas-Fermi vector in A             =   2.204077

 Write flags
   LWAVE        =      F    write WAVECAR
   LDOWNSAMPLE  =      F    k-point downsampling of WAVECAR
   LCHARG       =      F    write CHGCAR
   LVTOT        =      F    write LOCPOT, total local potential
   LVHAR        =      F    write LOCPOT, Hartree potential only
   LELF         =      F    write electronic localiz. function (ELF)
   LORBIT       =      0    0 simple, 1 ext, 2 COOP (PROOUT), +10 PAW based schemes

 Dipole corrections
   LMONO  =      F    monopole corrections only (constant potential shift)
   LDIPOL =      F    correct potential (dipole corrections)
   IDIPOL =      0    1-x, 2-y, 3-z, 4-all directions
   EPSILON=  1.0000000 bulk dielectric constant

 Exchange correlation treatment:
   GGA     =    PE    GGA type
   VOSKOWN=      0    Vosko Wilk Nusair interpolation
   LHFCALC =     F    Hartree Fock is set to
   LHFONE  =     F    Hartree Fock one center treatment
   AEXX    =    0.0000 exact exchange contribution

 Linear response parameters
   LEPSILON=     F    determine dielectric tensor
   LRPA    =     F    only Hartree local field effects (RPA)
   LNABLA  =     F    use nabla operator in PAW spheres
   LVEL    =     F    velocity operator in full k-point grid
   LINTERFAST=   F  fast interpolation
   KINTER  =     0    interpolate to denser k-point grid
   CSHIFT  =0.1000    complex shift for real part using Kramers Kronig
   OMEGAMAX=  -1.0    maximum frequency
   DEG_THRESHOLD= 0.2000000E-02 threshold for treating states as degnerate
   RTIME   =   -0.100 relaxation time in fs
  (WPLASMAI=    0.000 imaginary part of plasma frequency in eV, 0.658/RTIME)
   DFIELD  = 0.0000000 0.0000000 0.0000000 field for delta impulse in time

 Orbital magnetization related:
   ORBITALMAG=     F  switch on orbital magnetization
   LCHIMAG   =     F  perturbation theory with respect to B field
   DQ        =  0.001000  dq finite difference perturbation B field
   LLRAUG    =     F  two centre corrections for induced B field

 Static calculation
 charge density and potential will be updated during run
 non-spin polarized calculation
 RMM-DIIS sequential band-by-band
 perform sub-space diagonalisation
    before iterative eigenvector-optimisation
 modified Broyden-mixing scheme, WC =      100.0
 initial mixing is a Kerker type mixing with AMIX =  0.4000 and BMIX =      1.0000
[...]
     0.000000000  0.000000000 20.789000000     0.000000000  0.000000000  0.048102362

  length of vectors
    12.548000000 12.548000000 20.789000000     0.092022676  0.092022676  0.048102362

 FORCES acting on ions
    electron-ion (+dipol)            ewald-force                    non-local-force                 convergence-correction
   -.253E+02 -.411E+02 -.263E+02   0.252E+02 0.407E+02 0.264E+02   0.752E+00 0.967E+00 -.193E-02   0.345E-03 0.278E-03 -.300E-03
   0.565E+02 -.116E+02 -.119E+02   -.558E+02 0.114E+02 0.121E+02   -.116E+01 0.134E+00 -.155E+00   -.153E-03 0.529E-04 -.261E-04
   -.351E+02 0.351E+02 0.344E+02   0.350E+02 -.346E+02 -.345E+02   0.700E+00 -.101E+01 -.701E-01   -.694E-05 -.302E-03 -.389E-03
   -.376E+02 -.383E+02 -.104E+02   0.376E+02 0.378E+02 0.105E+02   0.756E+00 0.975E+00 0.530E-01   0.290E-04 0.140E-03 0.155E-03
   -.347E+01 -.188E+01 0.227E+01   0.100E+01 0.295E+01 -.258E+01   0.148E+01 -.883E+00 0.638E-01   0.442E-03 -.293E-03 0.233E-03
   0.333E+02 -.395E+02 0.202E+02   -.332E+02 0.390E+02 -.202E+02   -.773E+00 0.848E+00 0.189E-01   -.186E-03 0.163E-03 0.729E-04
   0.310E+02 0.514E+02 -.112E+02   -.309E+02 -.510E+02 0.113E+02   -.796E+00 -.840E+00 0.415E-01   -.265E-03 -.172E-03 0.181E-04
   -.131E+02 -.151E+02 -.206E+02   0.130E+02 0.149E+02 0.207E+02   0.131E+00 0.482E+00 -.793E-01   -.245E-04 0.173E-03 0.468E-04
   -.131E+02 0.261E+02 -.238E+02   0.126E+02 -.262E+02 0.236E+02   0.277E+00 -.421E+00 -.496E-02   0.595E-04 -.990E-04 -.948E-04
   0.304E+03 0.175E+03 -.140E+03   -.302E+03 -.181E+03 0.135E+03   -.299E+01 0.654E+01 0.475E+01   0.104E-02 -.128E-02 -.144E-02
   0.326E+03 0.122E+03 0.218E+03   -.332E+03 -.121E+03 -.214E+03   0.627E+01 -.104E+01 -.408E+01   -.304E-02 0.173E-03 0.111E-02
   0.118E+03 0.782E+02 0.700E+02   -.124E+03 -.829E+02 -.720E+02   0.702E+01 0.440E+01 0.178E+01   0.850E-04 -.514E-04 0.508E-04
   -.134E+03 0.553E+02 0.643E+02   0.141E+03 -.582E+02 -.665E+02   -.712E+01 0.288E+01 0.222E+01   0.104E-03 -.144E-03 0.457E-04
   0.142E+02 -.132E+03 0.601E+02   -.150E+02 0.139E+03 -.615E+02   0.463E+00 -.711E+01 0.934E+00   -.121E-03 0.440E-05 -.366E-03
   -.738E+02 -.959E+02 -.701E+02   0.818E+02 0.983E+02 0.743E+02   -.960E+01 -.914E+00 -.773E+01   0.841E-03 0.366E-03 -.286E-03
   0.130E+03 -.617E+02 -.388E+02   -.136E+03 0.684E+02 0.433E+02   0.523E+01 -.908E+01 -.834E+01   -.359E-03 0.253E-03 0.796E-04
   -.633E+02 0.156E+03 -.664E+02   0.652E+02 -.163E+03 0.651E+02   -.187E+01 0.739E+01 0.102E+01   -.369E-03 -.141E-03 -.447E-04
   -.121E+03 0.749E+02 0.455E+02   0.130E+03 -.769E+02 -.414E+02   -.110E+02 0.352E+00 -.779E+01   0.142E-03 -.184E-03 -.223E-03
   0.125E+03 0.591E+02 0.728E+02   -.132E+03 -.622E+02 -.752E+02   0.699E+01 0.320E+01 0.251E+01   -.164E-03 -.672E-05 -.685E-04
   -.169E+02 -.142E+03 0.616E+02   0.179E+02 0.150E+03 -.637E+02   -.872E+00 -.743E+01 0.192E+01   -.300E-04 0.634E-04 -.682E-05
   0.773E+02 -.130E+03 -.922E+02   -.834E+02 0.135E+03 0.916E+02   0.624E+01 -.473E+01 -.249E+00   -.479E-03 0.111E-03 -.134E-03
   -.125E+03 -.153E+02 -.883E+01   0.131E+03 0.135E+02 0.136E+01   -.555E+01 0.442E+01 0.109E+02   0.133E-03 0.453E-03 0.101E-03
   0.427E+02 0.137E+03 -.106E+02   -.472E+02 -.142E+03 0.384E+01   0.662E+01 0.317E+01 0.999E+01   0.278E-03 -.331E-03 -.131E-03
   -.123E+03 -.780E+02 0.469E+01   0.132E+03 0.801E+02 -.884E+01   -.110E+02 -.401E+00 0.779E+01   -.176E-03 0.551E-03 0.967E-03
   0.132E+03 -.568E+02 -.144E+02   -.140E+03 0.598E+02 0.163E+02   0.702E+01 -.310E+01 -.170E+01   -.205E-03 -.911E-04 -.370E-06
   -.195E+02 0.143E+03 -.119E+02   0.204E+02 -.150E+03 0.137E+02   -.774E+00 0.747E+01 -.160E+01   0.725E-04 -.234E-03 -.764E-04
   0.657E+01 -.795E+02 -.909E+02   -.104E+02 0.775E+02 0.931E+02   0.330E+01 0.130E+01 -.222E+01   -.527E-03 -.397E-04 0.881E-04
   -.123E+03 0.500E+02 -.752E+02   0.130E+03 -.479E+02 0.833E+02   -.585E+01 -.486E+01 -.118E+02   0.295E-03 -.288E-03 -.217E-03
   0.288E+02 -.837E+02 -.762E+02   -.335E+02 0.875E+02 0.835E+02   0.682E+01 -.198E+01 -.107E+02   0.291E-03 0.248E-03 0.509E-05
   0.119E+03 -.879E+02 -.130E+02   -.125E+03 0.927E+02 0.147E+02   0.694E+01 -.455E+01 -.135E+01   0.226E-03 0.289E-03 0.154E-03
   -.133E+03 -.525E+02 -.153E+02   0.140E+03 0.554E+02 0.173E+02   -.703E+01 -.296E+01 -.189E+01   0.140E-03 0.856E-04 -.754E-04
   0.144E+02 0.138E+03 -.982E+01   -.151E+02 -.145E+03 0.111E+02   0.380E+00 0.728E+01 -.779E+00   -.331E-03 -.286E-03 0.245E-03
   -.255E+02 0.136E+02 -.439E+02   0.318E+02 -.146E+02 0.404E+02   -.743E+01 -.934E+00 0.692E+01   0.975E-03 -.383E-03 -.974E-04
   -.104E+02 0.942E+02 -.134E+03   0.523E+01 -.979E+02 0.138E+03   0.453E+01 0.357E+01 -.491E+01   -.465E-03 -.131E-03 0.439E-04
   -.192E+02 -.145E+03 -.544E+02   0.211E+02 0.153E+03 0.571E+02   -.210E+01 -.764E+01 -.299E+01   -.169E-03 0.178E-03 0.124E-05
   0.101E+03 0.139E+03 0.835E+02   -.107E+03 -.150E+03 -.851E+02   0.607E+01 0.964E+01 0.216E+01   -.174E-03 -.328E-03 0.307E-03
   -.205E+03 0.474E+01 0.527E+02   0.217E+03 -.366E+01 -.537E+02   -.121E+02 -.102E+01 0.102E+01   0.349E-03 -.991E-04 0.141E-03
   0.106E+03 -.142E+03 0.387E+02   -.115E+03 0.148E+03 -.335E+02   0.111E+02 -.388E+01 -.877E+01   -.322E-03 0.356E-03 0.194E-05
   -.102E+03 -.164E+03 -.214E+02   0.110E+03 0.171E+03 0.152E+02   -.959E+01 -.505E+01 0.956E+01   0.693E-03 0.496E-03 -.817E-03
   0.200E+03 -.183E+02 -.881E+01   -.210E+03 0.217E+02 0.199E+01   0.936E+01 -.599E+01 0.104E+02   -.430E-03 0.254E-04 -.974E-04
   -.111E+03 0.181E+03 -.407E+02   0.119E+03 -.191E+03 0.402E+02   -.736E+01 0.958E+01 0.290E+00   0.986E-04 -.347E-03 -.902E-05
   -.966E+02 0.149E+03 0.771E+02   0.104E+03 -.156E+03 -.834E+02   -.955E+01 0.480E+01 0.966E+01   0.430E-03 -.416E-03 -.699E-04
   0.165E+03 0.148E+02 0.978E+02   -.176E+03 -.138E+02 -.100E+03   0.111E+02 -.632E+00 0.302E+01   -.333E-03 0.125E-03 0.581E-04
   -.987E+02 -.177E+03 0.495E+02   0.106E+03 0.186E+03 -.501E+02   -.746E+01 -.949E+01 0.573E+00   0.248E-04 0.212E-03 0.156E-03
   0.102E+03 -.183E+03 -.464E+02   -.107E+03 0.194E+03 0.456E+02   0.570E+01 -.105E+02 0.760E+00   -.363E-03 0.366E-03 -.349E-03
   -.200E+03 0.460E+01 -.268E+02   0.211E+03 -.544E+01 0.254E+02   -.111E+02 0.702E+00 0.169E+01   0.375E-03 0.219E-03 0.752E-05
   0.108E+03 0.167E+03 -.473E+02   -.117E+03 -.173E+03 0.518E+02   0.107E+02 0.472E+01 -.801E+01   -.148E-03 -.523E-03 -.124E-03
   -.111E+03 -.161E+03 -.350E+02   0.118E+03 0.167E+03 0.413E+02   -.966E+01 -.499E+01 -.963E+01   0.145E-03 0.581E-03 -.178E-03
   0.204E+03 -.590E+01 -.143E+02   -.216E+03 0.498E+01 0.146E+02   0.117E+02 0.905E+00 -.160E-01   -.380E-03 -.116E-03 -.195E-03
   -.104E+03 0.178E+03 -.190E+02   0.111E+03 -.188E+03 0.195E+02   -.729E+01 0.943E+01 -.333E+00   0.233E-03 -.424E-03 -.223E-03
   0.620E+02 0.500E+02 0.845E+02   -.672E+02 -.594E+02 -.844E+02   0.512E+01 0.874E+01 0.137E+00   -.667E-03 -.332E-03 0.334E-03
   -.200E+03 0.916E+01 0.170E+02   0.212E+03 -.792E+01 -.156E+02   -.123E+02 -.122E+01 -.178E+01   0.518E-03 -.595E-04 0.107E-03
   0.108E+03 -.110E+03 0.411E+02   -.117E+03 0.115E+03 -.461E+02   0.110E+02 -.323E+01 0.858E+01   0.330E-04 0.285E-03 0.296E-03
   0.108E+03 -.176E+03 -.212E+02   -.113E+03 0.187E+03 0.222E+02   0.564E+01 -.105E+02 -.119E+01   0.140E-03 0.455E-03 -.362E-03
   -.203E+03 0.559E-02 -.168E+02   0.215E+03 -.106E+01 0.175E+02   -.116E+02 0.104E+01 -.677E+00   0.377E-03 0.193E-03 -.716E-04
   0.105E+03 0.165E+03 0.312E+01   -.114E+03 -.171E+03 -.838E+01   0.110E+02 0.428E+01 0.880E+01   -.532E-03 -.573E-03 -.114E-03
   -.542E+02 0.123E+03 0.310E+02   0.611E+02 -.129E+03 -.253E+02   -.844E+01 0.451E+01 -.894E+01   0.925E-03 -.440E-03 0.740E-03
   -.387E+02 0.568E+02 0.107E+03   0.374E+02 -.584E+02 -.109E+03   -.381E+00 0.199E+01 0.221E+01   -.708E-03 0.563E-04 0.380E-03
   -.973E+02 -.176E+03 0.179E+02   0.105E+03 0.186E+03 -.174E+02   -.769E+01 -.960E+01 -.300E+00   0.117E-04 0.294E-03 0.131E-03
   0.151E+03 -.912E+02 0.701E+02   -.172E+03 0.103E+03 -.674E+02   0.206E+02 -.110E+02 -.254E+01   0.139E-03 0.111E-03 0.703E-04
[...]
   -.230E+02 0.608E+02 0.322E+02   0.235E+02 -.575E+02 -.322E+02   -.325E+00 -.312E+01 0.820E-01   0.416E-03 -.361E-03 0.517E-03
   -.830E+02 0.702E+01 -.140E+02   0.816E+02 -.676E+01 0.139E+02   0.180E+01 -.330E+00 0.672E-01   0.127E-03 0.159E-03 -.433E-04
   0.360E+02 -.771E+02 -.195E+02   -.355E+02 0.756E+02 0.196E+02   -.667E+00 0.193E+01 -.718E-01   -.142E-03 0.156E-03 -.195E-03
   -.232E+02 0.337E+02 0.182E+02   0.231E+02 -.331E+02 -.185E+02   0.332E+00 -.792E+00 0.140E+00   -.350E-04 -.386E-04 0.441E-04
   -.222E+02 -.325E+02 0.146E+02   0.222E+02 0.320E+02 -.146E+02   0.243E+00 0.796E+00 -.155E-01   -.313E-05 -.284E-05 -.816E-04
   0.409E+02 -.218E+01 0.187E+02   -.408E+02 0.228E+01 -.188E+02   -.672E+00 -.828E-01 0.575E-01   0.168E-04 0.839E-04 0.224E-04
   0.140E+02 -.374E+02 -.288E+02   -.114E+02 0.388E+02 0.302E+02   -.209E+01 -.581E+00 -.107E+01   -.305E-03 0.657E-04 -.295E-04
   -.328E+02 0.352E+02 -.597E+02   0.368E+02 -.340E+02 0.623E+02   -.262E+01 -.117E+01 -.119E+01   -.402E-03 -.188E-04 0.915E-05
   -.664E+01 -.145E+02 -.354E+02   0.607E+01 0.144E+02 0.358E+02   0.536E+00 0.162E+00 -.172E+00   0.959E-03 -.298E-04 -.225E-03
   0.172E+02 0.353E+02 0.198E+02   -.171E+02 -.348E+02 -.201E+02   -.366E+00 -.828E+00 0.789E-01   -.493E-04 -.237E-04 -.460E-04
   0.201E+02 -.354E+02 0.159E+02   -.198E+02 0.350E+02 -.159E+02   -.492E+00 0.684E+00 0.234E-01   -.679E-04 0.103E-04 -.359E-04
   -.410E+02 -.711E+00 0.166E+02   0.441E+02 0.733E+00 -.165E+02   -.183E+01 0.356E-01 -.290E-01   0.308E-03 0.198E-03 0.443E-03
   -.748E+01 -.464E+02 -.610E+02   0.929E+01 0.465E+02 0.628E+02   -.119E+01 -.552E-01 -.674E+00   -.489E-03 -.555E-05 -.123E-03
   0.817E+02 0.931E+02 -.247E+01   -.867E+02 -.997E+02 0.314E+01   0.497E+01 0.658E+01 -.674E+00   0.137E-03 0.386E-03 -.673E-05
   0.342E+02 0.238E+02 -.371E+01   -.227E-12 -.853E-13 0.353E-12   -.342E+02 -.238E+02 0.371E+01   -.262E-02 -.247E-02 -.493E-03

 POSITION                                       TOTAL-FORCE (eV/Angst)
      4.69107     -0.96607     13.00144         0.665454      0.513511      0.085806
      4.76510     -6.32127     13.00144        -0.498480     -0.046640      0.049808
      4.69107      0.96607      2.60694         0.619368     -0.410926     -0.175911
      4.69107     -0.96607     18.18206         0.676750      0.385985      0.156932
      4.69107      0.96607      7.78756        -1.045660      0.257258     -0.275981
      1.59109      2.67977      5.19725        -0.625654      0.325168     -0.027298
      1.59109     -2.67977     15.59175        -0.672098     -0.439721      0.137089
      1.55470      2.69281     10.39450         0.023934      0.292653      0.039121
      1.55470     -2.69281     10.39450        -0.181451     -0.423687     -0.187131
      6.62126     -1.27376      8.81891        -0.081217      0.522863     -0.620178
      8.89456     -3.25454      7.23038        -0.500233      0.396943      0.233859
      8.50817      0.37491      1.25981         0.206261     -0.252610     -0.197432
      7.96923      7.18084      1.25981         0.181846     -0.012729      0.015221
      2.34459      3.31114      1.25981        -0.304735      0.223594     -0.420123
      4.03983     -0.37491     11.65431        -1.615374      1.480927     -3.592254
      4.57877     -7.18084     11.65431        -0.554900     -2.437488     -3.817038
     10.20341     -3.31114     11.65431        -0.060556     -0.183906     -0.348477
      4.03983      0.37491      1.25981        -1.984360     -1.676786     -3.666380
      4.57877      7.18084      1.25981        -0.203890      0.041746      0.105327
     10.20341      3.31114      1.25981         0.147797      0.188008     -0.098461
      8.50817     -0.37491     11.65431         0.141194      0.284590     -0.857837
      7.96923     -7.18084     11.65431         0.416897      2.643355      3.383853
      2.34459     -3.31114     11.65431         2.070247     -1.580830      3.253314
      4.03983     -0.37491     19.52919        -1.970757      1.658632      3.643495
      4.57877     -7.18084     19.52919        -0.207609     -0.088681      0.170887
     10.20341     -3.31114     19.52919         0.204102     -0.163261      0.222508
      8.50817      0.37491      9.13469        -0.521106     -0.628637      0.029565
      7.96923      7.18084      9.13469         0.379050     -2.799410     -3.736444
      2.34459      3.31114      9.13469         2.130056      1.880705     -3.424837
      8.50817     -0.37491     19.52919         0.208501      0.241439      0.324131
      7.96923     -7.18084     19.52919         0.204189     -0.047762      0.112613
      2.34459     -3.31114     19.52919        -0.341303     -0.183129      0.474898
      4.03983      0.37491      9.13469        -1.115462     -1.871008      3.375987
      4.57877      7.18084      9.13469        -0.594281     -0.153355     -0.809110
     10.20341      3.31114      9.13469        -0.252230      0.195263     -0.352055
      8.52762      0.25211      3.88339         0.301961     -0.587269      0.578003
      8.06585      7.25908      3.88339         0.199376      0.066259      0.101256
      2.22852      3.35569      3.88339         1.779555      1.880795     -3.576664
      4.02038     -0.25211     14.27789        -1.836213      1.918901      3.396706
      4.48215     -7.25908     14.27789        -0.707518     -2.581500      3.578888
     10.31948     -3.35569     14.27789        -0.045238     -0.273133     -0.193354
      4.02038      0.25211      3.88339        -1.818419     -1.953673      3.363677
      4.48215      7.25908      3.88339        -0.441959      0.358123      0.849835
     10.31948      3.35569      3.88339        -0.037667      0.274329     -0.085933
      8.52762     -0.25211     14.27789         0.077498      0.299191      0.014415
      8.06585     -7.25908     14.27789         0.390499     -0.145240      0.318872
      2.22852     -3.35569     14.27789         1.696653     -1.730593     -3.420412
      4.02038     -0.25211     16.90561        -1.837711      1.925195     -3.372327
      4.48215     -7.25908     16.90561        -0.289096     -0.016318      0.247554
     10.31948     -3.35569     16.90561        -0.015082     -0.293659      0.156385
      8.52762      0.25211      6.51111        -0.098600     -0.656395      0.233875
      8.06585      7.25908      6.51111         0.149109      0.027290     -0.328923
      2.22852      3.35569      6.51111         1.844077      2.124100      3.592570
      8.52762     -0.25211     16.90561         0.080873      0.316519     -0.147008
      8.06585     -7.25908     16.90561         0.314565     -0.021256      0.019137
      2.22852     -3.35569     16.90561         1.730042     -1.788050      3.531793
      4.02038      0.25211      6.51111        -1.565291     -2.055769     -3.262733
      4.48215      7.25908      6.51111        -1.755199      0.409800      0.185683
     10.31948      3.35569      6.51111        -0.150017      0.284144      0.226516
      8.12797      2.55263      2.67762        -0.312263      0.429292      0.137944
[...]
     10.95691      2.67977      5.19725         1.316913      0.706634     -0.125348
      3.11630      0.03803      5.19725         0.234459      0.189625      0.140903
      7.79921     -8.14908     15.59175         0.363769     -0.058504     -0.047545
      9.43170     -0.03803     15.59175        -0.143165      0.358938      0.022583
      1.55470     -2.69281      0.00000         0.284358     -0.195731     -0.130206
      1.55470      2.69281      0.00000         0.221085      0.271718      0.015435
      9.43861      0.00000      0.00000        -0.509299      0.018640     -0.081769
      4.71930     -8.17407     10.39450         0.526972      0.735776      0.342556
      4.71930      8.17407     10.39450         1.295221      0.100040      1.380357
      3.10939      0.00000     10.39450        -0.023679      0.101596      0.169369
      4.71930      8.17407      0.00000        -0.165571     -0.233083     -0.204432
      4.71930     -8.17407      0.00000        -0.192047      0.279713     -0.046887
      3.10939      0.00000      0.00000         1.239549      0.057860     -0.000972
      9.43861      0.00000     10.39450         0.626001      0.097350      1.185230
      6.76419     -3.68088      8.30361        -0.003066     -0.020099      0.007942
    total drift:                               -0.002151     -0.003080     -0.001636

  FREE ENERGIE OF THE ION-ELECTRON SYSTEM (eV)
  free  energy   TOTEN  =     -1123.51540554 eV

  energy  without entropy=    -1122.38283402  energy(sigma->0) =    -1122.94911978