 vasp.5.4.4.18Apr17-6-g9f103f2a35 (build Dec 21 2018 14:18:36) complex

 executed on             LinuxIFC date 2022.04.06  11:28:00

 INCAR:
 POTCAR:  PAW_PBE Al 04Jan2001
 POTCAR:   PAW_PBE Cu 22Jun2005
 POTCAR:   PAW_PBE O 08Apr2002
 POTCAR:   PAW_PBE Si 05Jan2001

 POTCAR:  PAW_PBE Al 04Jan2001
   VRHFIN =Al: s2p1

   TITEL  = PAW_PBE Al 04Jan2001
   POMASS =   26.982; ZVAL   =    3.000    mass and valenz
   ENMAX  =  240.300; ENMIN  =  180.225 eV
   QCUT   =   -4.203; QGAM   =    8.405    optimization parameters

   Description
     l     E      TYP  RCUT    TYP  RCUT
     0   .000     23  1.900
     0   .000     23  1.900
     1   .000     23  1.900
     1  1.000     23  1.900
     2   .000      7  1.900

 POTCAR:   PAW_PBE Cu 22Jun2005
   VRHFIN =Cu: d10 p1

   TITEL  = PAW_PBE Cu 22Jun2005
   POMASS =   63.546; ZVAL   =   11.000    mass and valenz
   ENMAX  =  295.446; ENMIN  =  221.585 eV

 POTCAR:   PAW_PBE O 08Apr2002
   VRHFIN =O: s2p4

   TITEL  = PAW_PBE O 08Apr2002
   POMASS =   16.000; ZVAL   =    6.000    mass and valenz
   ENMAX  =  400.000; ENMIN  =  300.000 eV
   QCUT   =   -5.520; QGAM   =   11.041    optimization parameters

[...]

 POTCAR:   PAW_PBE Si 05Jan2001
   VRHFIN =Si: s2p2

   TITEL  = PAW_PBE Si 05Jan2001
   POMASS =   28.085; ZVAL   =    4.000    mass and valenz
   ENMAX  =  245.345; ENMIN  =  184.009 eV
   QCUT   =   -4.246; QGAM   =    8.493    optimization parameters

   Description
     l     E      TYP  RCUT    TYP  RCUT
     0   .000     23  1.900
     0   .000     23  1.900
     1   .000     23  1.900
     1   .000     23  1.900
     2   .000      7  1.900

 Optimization of the real space projectors (new method)

 maximal supplied QI-value         = 19.84
 optimisation between [QCUT,QGAM] = [ 10.12, 20.44] = [ 28.68,116.96] Ry
 Optimized for a Real-space Cutoff    1.26 Angstroem

   l    n(q)    QCUT    max X(q) W(low)/X(q) W(high)/X(q)  e(spline)
   0      8    10.119    13.410    0.28E-04    0.17E-04    0.51E-08
   0      8    10.119   140.052    0.10E-03    0.16E-03    0.42E-07
   1      7    10.119     9.624    0.38E-04    0.42E-05    0.15E-07
   1      7    10.119    53.353    0.23E-03    0.17E-03    0.13E-06
 Optimization of the real space projectors (new method)

[...]

   l    n(q)    QCUT    max X(q) W(low)/X(q) W(high)/X(q)  e(spline)
   0      9    10.150     4.192    0.32E-04    0.13E-04    0.13E-06
   0      9    10.150     8.473    0.18E-03    0.20E-03    0.43E-06
   1      9    10.150     2.474    0.32E-04    0.33E-04    0.64E-07
   1      9    10.150     3.912    0.13E-03    0.16E-03    0.33E-06
 Optimization of the real space projectors (new method)

 maximal supplied QI-value         = 19.84
 optimisation between [QCUT,QGAM] = [ 10.12, 20.44] = [ 28.68,116.96] Ry
 Optimized for a Real-space Cutoff    1.38 Angstroem

   l    n(q)    QCUT    max X(q) W(low)/X(q) W(high)/X(q)  e(spline)
   0      8    10.119     8.708    0.16E-04    0.67E-05    0.60E-08
   0      8    10.119   106.241    0.56E-04    0.11E-03    0.54E-07
   1      8    10.119     5.901    0.16E-04    0.16E-05    0.22E-07
   1      8    10.119    73.241    0.22E-03    0.17E-03    0.18E-06
PAW_PBE Al 04Jan2001                    :
 PAW_PBE Cu 22Jun2005                   :
 PAW_PBE O 08Apr2002                    :
 PAW_PBE Si 05Jan2001                   :

 POSCAR: Al Cu O Si
  positions in direct lattice
  velocities in cartesian coordinates
 exchange correlation table for  LEXCH =        8
   RHO(1)=    0.500       N(1)  =     2000
   RHO(2)=  100.500       N(2)  =     4000

 ion  position               nearest neighbor table
   1  0.418  0.329  0.625-  75 1.61  15 1.61  39 1.61  63 1.61 116 3.02 114 3.17 131 3.17 142 3.20

   2  0.671  0.089  0.625-  76 1.61  16 1.61  40 1.61  64 1.61 115 3.02 116 3.17 129 3.17 140 3.20

[...]

 146  0.752  0.752  0.500- 107 1.61 100 1.61  21 1.61  27 1.61 140 3.11 141 3.11

IMPORTANT INFORMATION: All symmetrisations will be switched off!
NOSYMM: (Re-)initialisation of all symmetry stuff for point group C_1.

 KPOINTS: Automatic

Automatic generation of k-mesh.
Space group operators:
 irot       det(A)        alpha          n_x          n_y          n_z        tau_x        tau_y        tau_z
    1     1.000000     0.000000     1.000000     0.000000     0.000000     0.000000     0.000000     0.000000

 Subroutine IBZKPT returns following result:

 Found      1 irreducible k-points:

 Following reciprocal coordinates:
            Coordinates               Weight
  0.000000  0.000000  0.000000      1.000000

 Following cartesian coordinates:
            Coordinates               Weight
  0.000000  0.000000  0.000000      1.000000

 SYSTEM =  ZEOLITE_AFG_energy_SO
 POSCAR =  Al Cu O Si

 Startparameter for this run:
   NWRITE =      2    write-flag & timer
   PREC   = accura    normal or accurate (medium, high low for compatibility)
   ISTART =      0    job   : 0-new  1-cont  2-samecut
   ICHARG =      2    charge: 1-file 2-atom 10-const
   ISPIN  =      1    spin polarized calculation?
   LNONCOLLINEAR =      F non collinear calculations
   LSORBIT =      F    spin-orbit coupling
   INIWAV =      1    electr: 0-lowe 1-rand  2-diag
   LASPH  =      F    aspherical Exc in radial PAW
   METAGGA=      F    non-selfconsistent MetaGGA calc.

 Electronic Relaxation 1
   ENCUT  =  400.0 eV  29.40 Ry    5.42 a.u.  20.46 20.46 33.90*2*pi/ulx,y,z
   ENINI  =  400.0     initial cutoff
   ENAUG  =  605.4 eV  augmentation charge cutoff
   NELM   =    100;   NELMIN=  5; NELMDL=-12     # of ELM steps
   EDIFF  = 0.1E-05   stopping-criterion for ELM
   LREAL  =      T    real-space projection
   NLSPLINE    = F    spline interpolate recip. space projectors
   LCOMPAT=      F    compatible to vasp.4.4
   GGA_COMPAT  = T    GGA compatible to vasp.4.4-vasp.4.6
   LMAXPAW     = -100 max onsite density
   LMAXMIX     =    2 max onsite mixed and CHGCAR
   VOSKOWN=      0    Vosko Wilk Nusair interpolation
   ROPT   =   -0.00025  -0.00025  -0.00025  -0.00025
 Ionic relaxation
   EDIFFG = -.5E-02   stopping-criterion for IOM
   NSW    =      0    number of steps for IOM
   NBLOCK =      1;   KBLOCK =      1    inner block; outer block
   IBRION =     -1    ionic relax: 0-MD 1-quasi-New 2-CG
   NFREE  =      2    steps in history (QN), initial steepest desc. (CG)
   ISIF   =      2    stress and relaxation
   IWAVPR =     10    prediction:  0-non 1-charg 2-wave 3-comb
   ISYM   =      0    0-nonsym 1-usesym 2-fastsym
   LCORR  =      T    Harris-Foulkes like correction to forces

   POTIM  = 0.0150    time-step for ionic-motion
   TEIN   =    0.0    initial temperature
   TEBEG  =    0.0;   TEEND  =   0.0 temperature during run
   SMASS  =  -3.00    Nose mass-parameter (am)
   estimated Nose-frequenzy (Omega)   =  0.10E-29 period in steps =****** mass=  -0.360E-26a.u.
   SCALEE = 1.0000    scale energy and forces
   NPACO  =    256;   APACO  = 16.0  distance and # of slots for P.C.
   PSTRESS=    0.0 pullay stress

  Mass of Ions in am
   POMASS =  26.98 63.55 16.00 28.09
  Ionic Valenz
   ZVAL   =   3.00 11.00  6.00  4.00
  Atomic Wigner-Seitz radii
  virtual crystal weights
   VCA    =   1.00  1.00  1.00  1.00
   NELECT =     781.0000    total number of electrons
   NUPDOWN=      -1.0000    fix difference up-down

 DOS related values:
   EMIN   =  10.00;   EMAX   =-10.00  energy-range for DOS
   EFERMI =   0.00
   ISMEAR =     0;   SIGMA  =   0.20  broadening in eV -4-tet -1-fermi 0-gaus

 Electronic relaxation 2 (details)
   IALGO  =     48    algorithm
   LDIAG  =      T    sub-space diagonalisation (order eigenvalues)
   LSUBROT=      F    optimize rotation matrix (better conditioning)
   TURBO    =      0    0=normal 1=particle mesh
   IRESTART =      0    0=no restart 2=restart with 2 vectors
   NREBOOT  =      0    no. of reboots
   NMIN     =      0    reboot dimension
   EREF     =   0.00    reference energy to select bands
   IMIX   =      4    mixing-type and parameters
     AMIX     =   0.40;   BMIX     =  1.00
     AMIX_MAG =   1.60;   BMIX_MAG =  1.00
     AMIN     =   0.10
     WC   =   100.;   INIMIX=   1;  MIXPRE=   1;  MAXMIX= -45

 Intra band minimization:
   WEIMIN = 0.0000     energy-eigenvalue tresh-hold
   EBREAK =  0.53E-09  absolut break condition
   DEPER  =   0.30     relativ break condition

   TIME   =   0.40     timestep for ELM

  volume/ion in A,a.u.               =      19.42       131.03
  Fermi-wavevector in a.u.,A,eV,Ry     =   1.065256  2.013042 15.439495  1.134771
  Thomas-Fermi vector in A             =   2.200802

 Write flags
   LWAVE        =      F    write WAVECAR
   LDOWNSAMPLE  =      F    k-point downsampling of WAVECAR
   LCHARG       =      F    write CHGCAR
   LVTOT        =      F    write LOCPOT, total local potential
   LVHAR        =      F    write LOCPOT, Hartree potential only
   LELF         =      F    write electronic localiz. function (ELF)
   LORBIT       =      0    0 simple, 1 ext, 2 COOP (PROOUT), +10 PAW based schemes

 Dipole corrections
   LMONO  =      F    monopole corrections only (constant potential shift)
   LDIPOL =      F    correct potential (dipole corrections)
   IDIPOL =      0    1-x, 2-y, 3-z, 4-all directions
   EPSILON=  1.0000000 bulk dielectric constant

 Exchange correlation treatment:
   GGA     =    PE    GGA type
   VOSKOWN=      0    Vosko Wilk Nusair interpolation
   LHFCALC =     F    Hartree Fock is set to
   LHFONE  =     F    Hartree Fock one center treatment
   AEXX    =    0.0000 exact exchange contribution

 Linear response parameters
   LEPSILON=     F    determine dielectric tensor
   LRPA    =     F    only Hartree local field effects (RPA)
   LNABLA  =     F    use nabla operator in PAW spheres
   LVEL    =     F    velocity operator in full k-point grid
   LINTERFAST=   F  fast interpolation
   KINTER  =     0    interpolate to denser k-point grid
   CSHIFT  =0.1000    complex shift for real part using Kramers Kronig
   OMEGAMAX=  -1.0    maximum frequency
   DEG_THRESHOLD= 0.2000000E-02 threshold for treating states as degnerate
   RTIME   =   -0.100 relaxation time in fs
  (WPLASMAI=    0.000 imaginary part of plasma frequency in eV, 0.658/RTIME)
   DFIELD  = 0.0000000 0.0000000 0.0000000 field for delta impulse in time

 Orbital magnetization related:
   ORBITALMAG=     F  switch on orbital magnetization
   LCHIMAG   =     F  perturbation theory with respect to B field
   DQ        =  0.001000  dq finite difference perturbation B field
   LLRAUG    =     F  two centre corrections for induced B field

 Static calculation
 charge density and potential will be updated during run
 non-spin polarized calculation
 RMM-DIIS sequential band-by-band
 perform sub-space diagonalisation
    before iterative eigenvector-optimisation
 modified Broyden-mixing scheme, WC =      100.0
 initial mixing is a Kerker type mixing with AMIX =  0.4000 and BMIX =      1.0000
 Hartree-type preconditioning will be used
 using additional bands           77
 real space projection scheme for non local part
 use partial core corrections
 calculate Harris-corrections to forces
   (improved forces if not selfconsistent)
 use gradient corrections
 use of overlap-Matrix (Vanderbilt PP)
[...]
     0.000000000  0.000000000 20.789000000     0.000000000  0.000000000  0.048102362

  length of vectors
    12.548000000 12.548000000 20.789000000     0.092022676  0.092022676  0.048102362

 FORCES acting on ions
    electron-ion (+dipol)            ewald-force                    non-local-force                 convergence-correction
   -.279E+02 -.391E+02 -.177E+02   0.277E+02 0.387E+02 0.178E+02   0.767E+00 0.975E+00 0.981E-02   -.121E-02 0.260E-04 0.268E-02
   0.549E+02 -.136E+02 -.454E+01   -.543E+02 0.134E+02 0.475E+01   -.116E+01 0.130E+00 -.163E+00   0.132E-03 -.113E-03 0.147E-02
   -.358E+02 0.361E+02 0.285E+02   0.357E+02 -.356E+02 -.287E+02   0.707E+00 -.100E+01 -.726E-01   -.584E-03 -.448E-03 -.269E-02
   -.378E+02 -.382E+02 -.980E+01   0.377E+02 0.376E+02 0.991E+01   0.757E+00 0.975E+00 0.523E-01   -.856E-03 0.927E-04 0.313E-03
   -.879E+01 0.526E+01 0.672E+00   0.575E+01 -.413E+01 -.978E+00   0.167E+01 -.863E+00 0.632E-01   -.251E-02 0.249E-02 -.836E-03
   0.336E+02 -.429E+02 0.140E+02   -.334E+02 0.423E+02 -.141E+02   -.773E+00 0.851E+00 0.317E-01   -.331E-03 -.385E-04 -.844E-03
   0.308E+02 0.515E+02 -.745E+01   -.307E+02 -.511E+02 0.754E+01   -.796E+00 -.840E+00 0.443E-01   0.377E-03 0.534E-03 0.867E-03
   -.127E+02 -.198E+02 -.153E+02   0.126E+02 0.196E+02 0.154E+02   0.122E+00 0.495E+00 -.952E-01   -.473E-03 -.107E-03 0.149E-02
   -.151E+02 0.265E+02 -.189E+02   0.147E+02 -.265E+02 0.187E+02   0.238E+00 -.428E+00 -.655E-03   -.465E-03 0.125E-03 0.115E-02
   0.199E+03 0.440E+03 -.490E+02   -.198E+03 -.434E+03 0.443E+02   -.103E+01 -.569E+01 0.443E+01   0.172E-02 -.219E-02 0.632E-03
   0.581E+03 0.753E+02 0.544E+02   -.575E+03 -.754E+02 -.555E+02   -.565E+01 0.372E+00 0.120E+01   0.504E-02 -.549E-02 -.428E-02
   0.118E+03 0.798E+02 0.604E+02   -.125E+03 -.845E+02 -.624E+02   0.707E+01 0.437E+01 0.191E+01   0.557E-04 -.272E-03 -.246E-02
   -.135E+03 0.551E+02 0.560E+02   0.142E+03 -.580E+02 -.583E+02   -.713E+01 0.285E+01 0.229E+01   0.372E-04 0.902E-03 -.257E-02
   0.145E+02 -.133E+03 0.514E+02   -.153E+02 0.141E+03 -.528E+02   0.464E+00 -.706E+01 0.936E+00   0.254E-03 -.115E-02 -.277E-02
   -.818E+02 -.895E+02 -.538E+02   0.897E+02 0.920E+02 0.580E+02   -.948E+01 -.993E+00 -.780E+01   -.383E-02 0.687E-03 0.581E-02
   0.127E+03 -.669E+02 -.252E+02   -.133E+03 0.736E+02 0.297E+02   0.516E+01 -.918E+01 -.839E+01   0.101E-02 0.153E-03 0.303E-02
   -.481E+02 0.154E+03 -.413E+02   0.502E+02 -.162E+03 0.403E+02   -.216E+01 0.745E+01 0.512E+00   0.158E-02 -.603E-03 0.332E-02
   -.122E+03 0.757E+02 0.368E+02   0.131E+03 -.778E+02 -.327E+02   -.110E+02 0.337E+00 -.778E+01   -.581E-03 -.822E-03 -.428E-02
   0.126E+03 0.587E+02 0.631E+02   -.133E+03 -.619E+02 -.656E+02   0.698E+01 0.322E+01 0.264E+01   0.250E-03 0.338E-03 -.227E-02
   -.173E+02 -.143E+03 0.533E+02   0.183E+02 0.150E+03 -.554E+02   -.894E+00 -.742E+01 0.197E+01   0.115E-03 -.146E-03 -.207E-02
   0.837E+02 -.116E+03 -.665E+02   -.897E+02 0.122E+03 0.663E+02   0.619E+01 -.496E+01 -.822E+00   0.336E-02 0.129E-02 0.688E-02
   -.124E+03 -.251E+02 0.731E+01   0.130E+03 0.233E+02 -.148E+02   -.551E+01 0.451E+01 0.108E+02   -.936E-03 -.572E-03 0.284E-02
   0.364E+02 0.137E+03 0.300E+01   -.409E+02 -.141E+03 -.972E+01   0.663E+01 0.317E+01 0.996E+01   -.794E-03 0.672E-04 0.336E-02
   -.124E+03 -.777E+02 0.230E+01   0.133E+03 0.798E+02 -.645E+01   -.110E+02 -.409E+00 0.780E+01   -.530E-03 -.253E-03 -.639E-03
   0.132E+03 -.571E+02 -.168E+02   -.140E+03 0.601E+02 0.186E+02   0.701E+01 -.310E+01 -.167E+01   0.237E-03 0.673E-05 -.127E-02
   -.189E+02 0.143E+03 -.145E+02   0.199E+02 -.150E+03 0.163E+02   -.767E+00 0.746E+01 -.155E+01   0.286E-03 0.332E-03 -.103E-02
   0.190E+02 -.444E+02 -.787E+02   -.227E+02 0.431E+02 0.812E+02   0.296E+01 0.363E+00 -.254E+01   0.100E-01 0.797E-02 0.263E-02
   -.130E+03 0.485E+02 -.704E+02   0.136E+03 -.464E+02 0.785E+02   -.594E+01 -.492E+01 -.119E+02   -.856E-03 -.743E-04 0.153E-02
   0.332E+02 -.100E+03 -.700E+02   -.380E+02 0.104E+03 0.773E+02   0.695E+01 -.173E+01 -.107E+02   -.122E-02 -.240E-03 0.229E-02
   0.119E+03 -.874E+02 -.156E+02   -.126E+03 0.922E+02 0.173E+02   0.697E+01 -.456E+01 -.131E+01   -.441E-03 -.339E-03 -.114E-02
   -.133E+03 -.530E+02 -.177E+02   0.140E+03 0.559E+02 0.197E+02   -.703E+01 -.295E+01 -.188E+01   0.139E-03 -.846E-03 -.102E-02
   0.141E+02 0.138E+03 -.122E+02   -.148E+02 -.145E+03 0.134E+02   0.364E+00 0.726E+01 -.743E+00   0.633E-03 0.170E-02 -.205E-02
   -.380E+02 0.259E+02 -.375E+02   0.441E+02 -.267E+02 0.341E+02   -.712E+01 -.114E+01 0.678E+01   -.771E-02 0.377E-02 0.306E-02
   0.248E+02 0.871E+02 -.122E+03   -.291E+02 -.910E+02 0.127E+03   0.328E+01 0.378E+01 -.532E+01   0.165E-02 -.558E-03 0.122E-02
   -.236E+02 -.150E+03 -.496E+02   0.256E+02 0.158E+03 0.522E+02   -.232E+01 -.785E+01 -.307E+01   0.119E-02 0.537E-03 0.165E-02
   0.104E+03 0.147E+03 0.654E+02   -.110E+03 -.157E+03 -.672E+02   0.612E+01 0.943E+01 0.253E+01   0.835E-03 0.260E-03 -.326E-02
   -.207E+03 0.424E+01 0.404E+02   0.219E+03 -.315E+01 -.413E+02   -.121E+02 -.102E+01 0.108E+01   -.321E-03 0.868E-04 -.254E-02
   0.107E+03 -.147E+03 0.249E+02   -.116E+03 0.153E+03 -.197E+02   0.111E+02 -.377E+01 -.876E+01   -.217E-03 -.185E-03 -.259E-02
   -.104E+03 -.162E+03 -.100E+02   0.112E+03 0.169E+03 0.390E+01   -.958E+01 -.505E+01 0.954E+01   -.173E-02 -.804E-03 0.357E-02
   0.199E+03 -.195E+02 0.173E+01   -.209E+03 0.229E+02 -.855E+01   0.935E+01 -.599E+01 0.104E+02   0.728E-03 0.387E-03 0.162E-02
   -.108E+03 0.180E+03 -.274E+02   0.116E+03 -.190E+03 0.270E+02   -.742E+01 0.960E+01 0.137E+00   0.843E-03 0.328E-03 0.249E-02
   -.100E+03 0.153E+03 0.632E+02   0.108E+03 -.160E+03 -.695E+02   -.950E+01 0.472E+01 0.969E+01   -.789E-03 -.102E-04 -.501E-02
   0.172E+03 0.134E+02 0.800E+02   -.184E+03 -.124E+02 -.823E+02   0.109E+02 -.498E+00 0.328E+01   0.444E-03 0.196E-03 -.260E-02
   -.100E+03 -.178E+03 0.371E+02   0.108E+03 0.188E+03 -.378E+02   -.752E+01 -.953E+01 0.636E+00   -.271E-04 -.565E-04 -.210E-02
   0.103E+03 -.180E+03 -.329E+02   -.108E+03 0.191E+03 0.323E+02   0.574E+01 -.106E+02 0.556E+00   0.629E-03 -.944E-04 0.294E-02
   -.199E+03 0.216E+01 -.155E+02   0.211E+03 -.304E+01 0.141E+02   -.111E+02 0.737E+00 0.169E+01   -.965E-03 -.420E-03 0.131E-02
   0.106E+03 0.167E+03 -.367E+02   -.115E+03 -.173E+03 0.413E+02   0.107E+02 0.471E+01 -.800E+01   -.619E-05 0.117E-02 0.329E-02
   -.111E+03 -.160E+03 -.304E+02   0.119E+03 0.167E+03 0.367E+02   -.966E+01 -.498E+01 -.962E+01   -.118E-02 -.128E-02 0.145E-02
   0.204E+03 -.622E+01 -.991E+01   -.216E+03 0.530E+01 0.102E+02   0.117E+02 0.902E+00 -.305E-03   0.465E-03 0.174E-03 -.284E-03
   -.103E+03 0.178E+03 -.140E+02   0.110E+03 -.188E+03 0.145E+02   -.730E+01 0.942E+01 -.343E+00   0.712E-03 0.582E-03 0.401E-03
   0.726E+02 0.786E+02 0.645E+02   -.777E+02 -.875E+02 -.646E+02   0.491E+01 0.807E+01 0.500E+00   0.412E-02 0.249E-02 -.495E-02
   -.206E+03 0.800E+01 0.841E+01   0.219E+03 -.671E+01 -.693E+01   -.124E+02 -.127E+01 -.183E+01   -.734E-03 -.381E-03 -.689E-03
   0.111E+03 -.124E+03 0.302E+02   -.121E+03 0.129E+03 -.351E+02   0.112E+02 -.294E+01 0.861E+01   -.712E-03 0.480E-04 -.558E-03
   0.108E+03 -.175E+03 -.162E+02   -.113E+03 0.186E+03 0.173E+02   0.564E+01 -.105E+02 -.121E+01   -.138E-03 -.402E-03 0.860E-03
   -.203E+03 -.618E+00 -.123E+02   0.215E+03 -.443E+00 0.130E+02   -.116E+02 0.104E+01 -.670E+00   -.372E-03 -.735E-03 0.281E-03
   0.104E+03 0.164E+03 0.753E+01   -.114E+03 -.171E+03 -.128E+02   0.110E+02 0.428E+01 0.880E+01   0.444E-03 0.180E-02 0.623E-04
   -.655E+02 0.133E+03 0.198E+02   0.721E+02 -.140E+03 -.142E+02   -.808E+01 0.429E+01 -.884E+01   -.353E-02 0.147E-02 -.315E-02
   -.104E+02 0.515E+02 0.879E+02   0.890E+01 -.531E+02 -.900E+02   0.106E+00 0.199E+01 0.231E+01   0.798E-03 -.251E-03 -.102E-02
   -.101E+03 -.180E+03 0.922E+01   0.109E+03 0.190E+03 -.869E+01   -.789E+01 -.973E+01 -.281E+00   0.382E-03 0.213E-03 -.693E-03
   0.151E+03 -.896E+02 0.592E+02   -.172E+03 0.101E+03 -.566E+02   0.206E+02 -.110E+02 -.244E+01   0.997E-04 0.293E-03 -.246E-02
[...]
   -.488E+02 -.717E+02 0.179E+02   0.515E+02 0.719E+02 -.181E+02   -.121E+01 0.602E+00 0.653E-01   0.858E-04 0.547E-05 -.105E-02
   -.268E+02 0.635E+02 0.239E+02   0.274E+02 -.601E+02 -.239E+02   -.325E+00 -.315E+01 0.114E+00   -.103E-02 -.449E-04 -.203E-02
   -.830E+02 0.644E+01 -.894E+01   0.816E+02 -.618E+01 0.883E+01   0.180E+01 -.326E+00 0.653E-01   -.222E-03 -.595E-03 0.643E-03
   0.366E+02 -.764E+02 -.138E+02   -.360E+02 0.748E+02 0.140E+02   -.692E+00 0.192E+01 -.966E-01   0.503E-03 -.947E-04 0.108E-02
   -.233E+02 0.338E+02 0.146E+02   0.233E+02 -.332E+02 -.149E+02   0.320E+00 -.809E+00 0.157E+00   0.487E-03 0.864E-03 -.150E-02
   -.222E+02 -.329E+02 0.110E+02   0.222E+02 0.323E+02 -.110E+02   0.235E+00 0.799E+00 -.116E-01   0.424E-03 -.988E-03 -.126E-02
   0.413E+02 -.171E+01 0.146E+02   -.411E+02 0.183E+01 -.148E+02   -.674E+00 -.862E-01 0.742E-01   0.187E-03 -.213E-03 -.116E-02
   0.134E+02 -.397E+02 -.222E+02   -.105E+02 0.413E+02 0.237E+02   -.218E+01 -.664E+00 -.109E+01   0.930E-03 0.368E-03 0.164E-02
   -.177E+02 0.365E+02 -.468E+02   0.222E+02 -.351E+02 0.500E+02   -.279E+01 -.118E+01 -.137E+01   0.159E-02 -.242E-03 0.169E-02
   -.120E+02 -.109E+02 -.283E+02   0.114E+02 0.109E+02 0.287E+02   0.559E+00 0.167E+00 -.195E+00   -.286E-02 0.534E-03 0.279E-02
   0.178E+02 0.354E+02 0.157E+02   -.176E+02 -.348E+02 -.161E+02   -.371E+00 -.842E+00 0.105E+00   0.330E-03 0.221E-03 -.112E-02
   0.201E+02 -.356E+02 0.123E+02   -.198E+02 0.352E+02 -.124E+02   -.504E+00 0.684E+00 0.361E-01   0.256E-03 -.258E-03 -.115E-02
   -.413E+02 -.493E+00 0.130E+02   0.444E+02 0.532E+00 -.129E+02   -.184E+01 0.300E-01 -.319E-01   0.129E-02 -.240E-03 -.141E-02
   0.156E+01 -.341E+02 -.478E+02   0.577E+00 0.345E+02 0.502E+02   -.128E+01 -.111E+00 -.845E+00   0.368E-02 0.139E-02 0.302E-02
   0.371E+02 0.253E+02 -.910E+01   -.626E-12 -.924E-13 0.171E-12   -.371E+02 -.254E+02 0.910E+01   0.180E-01 0.371E-01 -.395E-02

 POSITION                                       TOTAL-FORCE (eV/Angst)
      4.69107     -0.96607     13.00144         0.633444      0.525483      0.116455
      4.76510     -6.32127     13.00144        -0.494464     -0.055800      0.053838
      4.69107      0.96607      2.60694         0.606651     -0.403068     -0.181422
      4.69107     -0.96607     18.18206         0.677881      0.384993      0.156943
      4.69107      0.96607      7.78756        -1.429241      0.340423     -0.271297
      1.59109      2.67977      5.19725        -0.615779      0.289043     -0.025055
      1.59109     -2.67977     15.59175        -0.675143     -0.440564      0.136456
      1.55470      2.69281     10.39450         0.022428      0.275078      0.038875
      1.55470     -2.69281     10.39450        -0.167516     -0.424351     -0.183087
      6.62126     -1.27376      8.81891        -0.197100      0.931712     -0.139580
      8.89456     -3.25454      7.23038        -0.479598      0.358010      0.136984
      8.50817      0.37491      1.25981         0.212729     -0.255886     -0.161021
      7.96923      7.18084      1.25981         0.177083     -0.029531      0.043497
      2.34459      3.31114      1.25981        -0.303369      0.235223     -0.419473
      4.03983     -0.37491     11.65431        -1.582403      1.461518     -3.604685
      4.57877     -7.18084     11.65431        -0.572496     -2.468077     -3.842656
     10.20341     -3.31114     11.65431        -0.092432     -0.157686     -0.508611
      4.03983      0.37491      1.25981        -1.987962     -1.682673     -3.673883
      4.57877      7.18084      1.25981        -0.207367      0.033427      0.151849
     10.20341      3.31114      1.25981         0.136345      0.193835     -0.078278
      8.50817     -0.37491     11.65431         0.163731      0.266341     -1.058901
      7.96923     -7.18084     11.65431         0.425123      2.667574      3.391400
      2.34459     -3.31114     11.65431         2.081040     -1.583778      3.252707
      4.03983     -0.37491     19.52919        -1.971787      1.658654      3.643545
      4.57877     -7.18084     19.52919        -0.209056     -0.092620      0.182403
     10.20341     -3.31114     19.52919         0.210800     -0.160981      0.242781
      8.50817      0.37491      9.13469        -0.678469     -0.906555     -0.062629
      7.96923      7.18084      9.13469         0.361392     -2.844074     -3.807432
      2.34459      3.31114      9.13469         2.175214      1.943929     -3.463246
      8.50817     -0.37491     19.52919         0.217195      0.243397      0.340206
      7.96923     -7.18084     19.52919         0.202733     -0.045459      0.115051
      2.34459     -3.31114     19.52919        -0.348745     -0.184393      0.488148
      4.03983      0.37491      9.13469        -1.027105     -1.918843      3.322992
      4.57877      7.18084      9.13469        -0.936381     -0.115753     -0.972016
     10.20341      3.31114      9.13469        -0.320854      0.156614     -0.392396
      8.52762      0.25211      3.88339         0.355550     -0.661233      0.731908
      8.06585      7.25908      3.88339         0.186098      0.072703      0.121078
      2.22852      3.35569      3.88339         1.786202      1.908638     -3.586443
      4.02038     -0.25211     14.27789        -1.839256      1.923589      3.404619
      4.48215     -7.25908     14.27789        -0.708582     -2.586445      3.582223
     10.31948     -3.35569     14.27789        -0.071413     -0.277343     -0.255232
      4.02038      0.25211      3.88339        -1.811522     -1.972574      3.372127
      4.48215      7.25908      3.88339        -0.481872      0.423092      0.954646
     10.31948      3.35569      3.88339        -0.048432      0.261705     -0.068795
      8.52762     -0.25211     14.27789         0.072879      0.285312     -0.053746
      8.06585     -7.25908     14.27789         0.396166     -0.136719      0.317183
      2.22852     -3.35569     14.27789         1.694766     -1.731304     -3.416790
      4.02038     -0.25211     16.90561        -1.837411      1.925855     -3.370031
      4.48215     -7.25908     16.90561        -0.289074     -0.015100      0.254439
     10.31948     -3.35569     16.90561        -0.018935     -0.295183      0.156499
      8.52762      0.25211      6.51111        -0.173399     -0.810870      0.360781
      8.06585      7.25908      6.51111         0.126391      0.019942     -0.345761
      2.22852      3.35569      6.51111         1.885237      2.208676      3.630915
      8.52762     -0.25211     16.90561         0.082232      0.316178     -0.155243
      8.06585     -7.25908     16.90561         0.314979     -0.017775      0.022937
      2.22852     -3.35569     16.90561         1.730517     -1.789585      3.535189
      4.02038      0.25211      6.51111        -1.473701     -2.101469     -3.218181
      4.48215      7.25908      6.51111        -1.422811      0.370355      0.169530
     10.31948      3.35569      6.51111        -0.204613      0.256120      0.248467
      8.12797      2.55263      2.67762        -0.305045      0.418742      0.158625
[...]
      4.74879      8.14908      5.19725         1.118990      0.984844     -2.531798
     10.95691      2.67977      5.19725         1.438981      0.811190     -0.157771
      3.11630      0.03803      5.19725         0.217736      0.287143      0.128670
      7.79921     -8.14908     15.59175         0.362435     -0.060920     -0.050058
      9.43170     -0.03803     15.59175        -0.122490      0.366691      0.055891
      1.55470     -2.69281      0.00000         0.301263     -0.174833     -0.160333
      1.55470      2.69281      0.00000         0.233101      0.264181      0.010656
      9.43861      0.00000      0.00000        -0.511263      0.027006     -0.116412
      4.71930     -8.17407     10.39450         0.657931      0.876218      0.376556
      4.71930      8.17407     10.39450         1.690844      0.190314      1.792165
      3.10939      0.00000     10.39450        -0.074670      0.123486      0.185166
      4.71930      8.17407      0.00000        -0.157449     -0.217577     -0.252667
      4.71930     -8.17407      0.00000        -0.178072      0.279296     -0.068398
      3.10939      0.00000      0.00000         1.250588      0.068647      0.002450
      9.43861      0.00000     10.39450         0.870705      0.255648      1.546624
    total drift:                               -0.001946     -0.005146      0.001019

  FREE ENERGIE OF THE ION-ELECTRON SYSTEM (eV)
  free  energy   TOTEN  =     -1110.67214610 eV

  energy  without entropy=    -1109.63339537  energy(sigma->0) =    -1110.15277073