 vasp.5.4.4.18Apr17-6-g9f103f2a35 (build Dec 21 2018 14:18:36) complex

 executed on             LinuxIFC date 2022.03.30  23:43:01

 INCAR:
 POTCAR:  PAW_PBE Al 04Jan2001
 POTCAR:   PAW_PBE Cu 22Jun2005
 POTCAR:   PAW_PBE O 08Apr2002
 POTCAR:   PAW_PBE Si 05Jan2001

 POTCAR:  PAW_PBE Al 04Jan2001
   VRHFIN =Al: s2p1

   TITEL  = PAW_PBE Al 04Jan2001
   POMASS =   26.982; ZVAL   =    3.000    mass and valenz
   ENMAX  =  240.300; ENMIN  =  180.225 eV
   QCUT   =   -4.203; QGAM   =    8.405    optimization parameters

   Description
     l     E      TYP  RCUT    TYP  RCUT
     0   .000     23  1.900
     0   .000     23  1.900
     1   .000     23  1.900
     1  1.000     23  1.900
     2   .000      7  1.900

 POTCAR:   PAW_PBE Cu 22Jun2005
   VRHFIN =Cu: d10 p1

   TITEL  = PAW_PBE Cu 22Jun2005
   POMASS =   63.546; ZVAL   =   11.000    mass and valenz
   ENMAX  =  295.446; ENMIN  =  221.585 eV

 POTCAR:   PAW_PBE O 08Apr2002
   VRHFIN =O: s2p4

   TITEL  = PAW_PBE O 08Apr2002
   POMASS =   16.000; ZVAL   =    6.000    mass and valenz
   ENMAX  =  400.000; ENMIN  =  300.000 eV
   QCUT   =   -5.520; QGAM   =   11.041    optimization parameters

[...]

 POTCAR:   PAW_PBE Si 05Jan2001
   VRHFIN =Si: s2p2

   TITEL  = PAW_PBE Si 05Jan2001
   POMASS =   28.085; ZVAL   =    4.000    mass and valenz
   ENMAX  =  245.345; ENMIN  =  184.009 eV
   QCUT   =   -4.246; QGAM   =    8.493    optimization parameters

   Description
     l     E      TYP  RCUT    TYP  RCUT
     0   .000     23  1.900
     0   .000     23  1.900
     1   .000     23  1.900
     1   .000     23  1.900
     2   .000      7  1.900

 Optimization of the real space projectors (new method)

 maximal supplied QI-value         = 19.84
 optimisation between [QCUT,QGAM] = [ 10.12, 20.44] = [ 28.68,116.96] Ry
 Optimized for a Real-space Cutoff    1.26 Angstroem

   l    n(q)    QCUT    max X(q) W(low)/X(q) W(high)/X(q)  e(spline)
   0      8    10.119    13.410    0.28E-04    0.17E-04    0.51E-08
   0      8    10.119   140.052    0.10E-03    0.16E-03    0.42E-07
   1      7    10.119     9.624    0.38E-04    0.42E-05    0.15E-07
   1      7    10.119    53.353    0.23E-03    0.17E-03    0.13E-06
 Optimization of the real space projectors (new method)

[...]

   l    n(q)    QCUT    max X(q) W(low)/X(q) W(high)/X(q)  e(spline)
   0      9    10.150     4.192    0.32E-04    0.13E-04    0.13E-06
   0      9    10.150     8.473    0.18E-03    0.20E-03    0.43E-06
   1      9    10.150     2.474    0.32E-04    0.33E-04    0.64E-07
   1      9    10.150     3.912    0.13E-03    0.16E-03    0.33E-06
 Optimization of the real space projectors (new method)

 maximal supplied QI-value         = 19.84
 optimisation between [QCUT,QGAM] = [ 10.12, 20.44] = [ 28.68,116.96] Ry
 Optimized for a Real-space Cutoff    1.38 Angstroem

   l    n(q)    QCUT    max X(q) W(low)/X(q) W(high)/X(q)  e(spline)
   0      8    10.119     8.708    0.16E-04    0.67E-05    0.60E-08
   0      8    10.119   106.241    0.56E-04    0.11E-03    0.54E-07
   1      8    10.119     5.901    0.16E-04    0.16E-05    0.22E-07
   1      8    10.119    73.241    0.22E-03    0.17E-03    0.18E-06
PAW_PBE Al 04Jan2001                    :
 PAW_PBE Cu 22Jun2005                   :
 PAW_PBE O 08Apr2002                    :
 PAW_PBE Si 05Jan2001                   :

 POSCAR: Al Cu O Si
  positions in direct lattice
  velocities in cartesian coordinates
 exchange correlation table for  LEXCH =        8
   RHO(1)=    0.500       N(1)  =     2000
   RHO(2)=  100.500       N(2)  =     4000

 ion  position               nearest neighbor table
   1  0.150  0.076  0.834-  10 1.61  21 1.61  29 1.61  14 1.61  60 3.08  58 3.09  62 3.11  71 3.12

   2  0.076  0.150  0.334-  11 1.61  23 1.61  31 1.61  12 1.61  61 3.08  56 3.09  64 3.11  73 3.12

   3  0.658  0.116  0.439-  47 1.61  35 1.61  41 1.61  22 1.61   6 2.79  64 3.09  70 3.10  61 3.11
                            73 3.12
   4  0.322  0.131  0.052-  32 1.61  53 1.61  24 1.61  48 1.61   7 2.73  71 3.09  62 3.10  56 3.12
                            65 3.12
   5  0.131  0.322  0.552-  34 1.61  55 1.61  26 1.61  50 1.61  73 3.09  64 3.10  58 3.12  67 3.12

[...]

  72  0.678  0.869  0.948-  36 1.61  52 1.61  28 1.61  44 1.61  69 3.09  65 3.10  60 3.12  62 3.12

  73  0.322  0.131  0.448-  39 1.61  55 1.61  31 1.61  47 1.61   6 2.72   5 3.09  68 3.10   2 3.12
                             3 3.12
  74  0.869  0.678  0.448-  38 1.61  54 1.61  30 1.61  46 1.61  70 3.09  67 3.10  61 3.12  64 3.12

IMPORTANT INFORMATION: All symmetrisations will be switched off!
NOSYMM: (Re-)initialisation of all symmetry stuff for point group C_1.

 KPOINTS: Automatic

Automatic generation of k-mesh.
Space group operators:
 irot       det(A)        alpha          n_x          n_y          n_z        tau_x        tau_y        tau_z
    1     1.000000     0.000000     1.000000     0.000000     0.000000     0.000000     0.000000     0.000000

 Subroutine IBZKPT returns following result:

 Found      1 irreducible k-points:

 Following reciprocal coordinates:
            Coordinates               Weight
  0.000000  0.000000  0.000000      1.000000

 Following cartesian coordinates:
            Coordinates               Weight
  0.000000  0.000000  0.000000      1.000000

 SYSTEM =  ZEOLITE_aei_energy_so
 POSCAR =  Al Cu O Si

 Startparameter for this run:
   NWRITE =      2    write-flag & timer
   PREC   = accura    normal or accurate (medium, high low for compatibility)
   ISTART =      0    job   : 0-new  1-cont  2-samecut
   ICHARG =      2    charge: 1-file 2-atom 10-const
   ISPIN  =      1    spin polarized calculation?
   LNONCOLLINEAR =      F non collinear calculations
   LSORBIT =      F    spin-orbit coupling
   INIWAV =      1    electr: 0-lowe 1-rand  2-diag
   LASPH  =      F    aspherical Exc in radial PAW
   METAGGA=      F    non-selfconsistent MetaGGA calc.

 Electronic Relaxation 1
   ENCUT  =  400.0 eV  29.40 Ry    5.42 a.u.  15.17 15.17 30.16*2*pi/ulx,y,z
   ENINI  =  400.0     initial cutoff
   ENAUG  =  605.4 eV  augmentation charge cutoff
   NELM   =    100;   NELMIN=  5; NELMDL=-12     # of ELM steps
   EDIFF  = 0.1E-05   stopping-criterion for ELM
   LREAL  =      T    real-space projection
   NLSPLINE    = F    spline interpolate recip. space projectors
   LCOMPAT=      F    compatible to vasp.4.4
   GGA_COMPAT  = T    GGA compatible to vasp.4.4-vasp.4.6
   LMAXPAW     = -100 max onsite density
   LMAXMIX     =    2 max onsite mixed and CHGCAR
   VOSKOWN=      0    Vosko Wilk Nusair interpolation
   ROPT   =   -0.00025  -0.00025  -0.00025  -0.00025
 Ionic relaxation
   EDIFFG = -.5E-02   stopping-criterion for IOM
   NSW    =      0    number of steps for IOM
   NBLOCK =      1;   KBLOCK =      1    inner block; outer block
   IBRION =     -1    ionic relax: 0-MD 1-quasi-New 2-CG
   NFREE  =      2    steps in history (QN), initial steepest desc. (CG)
   ISIF   =      2    stress and relaxation
   IWAVPR =     10    prediction:  0-non 1-charg 2-wave 3-comb
   ISYM   =      0    0-nonsym 1-usesym 2-fastsym
   LCORR  =      T    Harris-Foulkes like correction to forces

   POTIM  = 0.0150    time-step for ionic-motion
   TEIN   =    0.0    initial temperature
   TEBEG  =    0.0;   TEEND  =   0.0 temperature during run
   SMASS  =  -3.00    Nose mass-parameter (am)
   estimated Nose-frequenzy (Omega)   =  0.10E-29 period in steps =****** mass=  -0.198E-26a.u.
   SCALEE = 1.0000    scale energy and forces
   NPACO  =    256;   APACO  = 16.0  distance and # of slots for P.C.
   PSTRESS=    0.0 pullay stress

  Mass of Ions in am
   POMASS =  26.98 63.55 16.00 28.09
  Ionic Valenz
   ZVAL   =   3.00 11.00  6.00  4.00
  Atomic Wigner-Seitz radii
  virtual crystal weights
   VCA    =   1.00  1.00  1.00  1.00
   NELECT =     401.0000    total number of electrons
   NUPDOWN=      -1.0000    fix difference up-down

 DOS related values:
   EMIN   =  10.00;   EMAX   =-10.00  energy-range for DOS
   EFERMI =   0.00
   ISMEAR =     0;   SIGMA  =   0.20  broadening in eV -4-tet -1-fermi 0-gaus

 Electronic relaxation 2 (details)
   IALGO  =     48    algorithm
   LDIAG  =      T    sub-space diagonalisation (order eigenvalues)
   LSUBROT=      F    optimize rotation matrix (better conditioning)
   TURBO    =      0    0=normal 1=particle mesh
   IRESTART =      0    0=no restart 2=restart with 2 vectors
   NREBOOT  =      0    no. of reboots
   NMIN     =      0    reboot dimension
   EREF     =   0.00    reference energy to select bands
   IMIX   =      4    mixing-type and parameters
     AMIX     =   0.40;   BMIX     =  1.00
     AMIX_MAG =   1.60;   BMIX_MAG =  1.00
     AMIN     =   0.10
     WC   =   100.;   INIMIX=   1;  MIXPRE=   1;  MAXMIX= -45

 Intra band minimization:
   WEIMIN = 0.0000     energy-eigenvalue tresh-hold
   EBREAK =  0.10E-08  absolut break condition
   DEPER  =   0.30     relativ break condition

   TIME   =   0.40     timestep for ELM

  volume/ion in A,a.u.               =      21.55       145.42
  Fermi-wavevector in a.u.,A,eV,Ry     =   1.033312  1.952677 14.527411  1.067735
  Thomas-Fermi vector in A             =   2.167553

 Write flags
   LWAVE        =      F    write WAVECAR
   LDOWNSAMPLE  =      F    k-point downsampling of WAVECAR
   LCHARG       =      F    write CHGCAR
   LVTOT        =      F    write LOCPOT, total local potential
   LVHAR        =      F    write LOCPOT, Hartree potential only
   LELF         =      F    write electronic localiz. function (ELF)
   LORBIT       =      0    0 simple, 1 ext, 2 COOP (PROOUT), +10 PAW based schemes

 Dipole corrections
   LMONO  =      F    monopole corrections only (constant potential shift)
   LDIPOL =      F    correct potential (dipole corrections)
   IDIPOL =      0    1-x, 2-y, 3-z, 4-all directions
   EPSILON=  1.0000000 bulk dielectric constant

 Exchange correlation treatment:
   GGA     =    PE    GGA type
   VOSKOWN=      0    Vosko Wilk Nusair interpolation
   LHFCALC =     F    Hartree Fock is set to
   LHFONE  =     F    Hartree Fock one center treatment
   AEXX    =    0.0000 exact exchange contribution

 Linear response parameters
   LEPSILON=     F    determine dielectric tensor
   LRPA    =     F    only Hartree local field effects (RPA)
   LNABLA  =     F    use nabla operator in PAW spheres
   LVEL    =     F    velocity operator in full k-point grid
   LINTERFAST=   F  fast interpolation
   KINTER  =     0    interpolate to denser k-point grid
   CSHIFT  =0.1000    complex shift for real part using Kramers Kronig
   OMEGAMAX=  -1.0    maximum frequency
   DEG_THRESHOLD= 0.2000000E-02 threshold for treating states as degnerate
   RTIME   =   -0.100 relaxation time in fs
  (WPLASMAI=    0.000 imaginary part of plasma frequency in eV, 0.658/RTIME)
   DFIELD  = 0.0000000 0.0000000 0.0000000 field for delta impulse in time

 Orbital magnetization related:
   ORBITALMAG=     F  switch on orbital magnetization
   LCHIMAG   =     F  perturbation theory with respect to B field
   DQ        =  0.001000  dq finite difference perturbation B field
   LLRAUG    =     F  two centre corrections for induced B field

 Static calculation
[...]
     6.838500000  6.303500000  0.000000000     0.073115449  0.079321012  0.000000000
     0.000000000  0.000000000 18.497000000     0.000000000  0.000000000  0.054062821

  length of vectors
     9.300494315  9.300494315 18.497000000     0.107878134  0.107878134  0.054062821

 FORCES acting on ions
    electron-ion (+dipol)            ewald-force                    non-local-force                 convergence-correction
   -.535E+02 -.184E+02 0.524E+02   0.529E+02 0.183E+02 -.523E+02   0.102E+01 0.338E+00 -.370E+00   0.133E-04 0.162E-03 0.406E-04
   -.409E+02 -.105E+02 0.159E+02   0.395E+02 0.116E+02 -.166E+02   0.127E+01 -.670E+00 -.370E-02   -.224E-04 0.168E-03 0.134E-03
   -.418E+02 -.510E+02 -.478E+02   0.431E+02 0.498E+02 0.502E+02   0.118E-01 0.985E+00 -.660E+00   0.142E-03 0.522E-04 -.211E-03
   -.376E+02 -.169E+02 0.272E+02   0.365E+02 0.176E+02 -.299E+02   0.882E+00 -.132E+00 0.120E+01   0.134E-03 -.141E-04 0.820E-03
   -.447E+02 -.143E+02 -.734E+02   0.446E+02 0.144E+02 0.731E+02   0.593E+00 0.751E-01 0.948E+00   0.460E-04 0.163E-03 -.681E-03
   0.173E+03 0.789E+02 0.220E+03   -.170E+03 -.766E+02 -.219E+03   -.267E+01 -.196E+01 -.649E+00   0.533E-03 0.518E-03 0.798E-04
   0.334E+02 0.652E+02 -.173E+03   -.346E+02 -.614E+02 0.173E+03   0.130E+01 -.332E+01 -.643E-01   0.252E-03 0.949E-04 0.236E-02
   0.188E+02 0.187E+03 0.693E+01   -.184E+02 -.206E+03 -.101E+02   -.114E+01 0.194E+02 0.278E+01   0.208E-03 0.214E-03 0.110E-02
   -.301E+01 -.195E+03 -.576E+02   0.343E+01 0.215E+03 0.542E+02   -.900E+00 -.195E+02 0.325E+01   -.491E-03 0.418E-03 -.172E-02
   -.233E+02 -.188E+03 0.577E+02   0.302E+02 0.204E+03 -.545E+02   -.114E+02 -.157E+02 -.294E+01   -.857E-03 0.568E-03 0.124E-03
   -.594E+01 0.180E+03 -.895E+01   0.126E+02 -.197E+03 0.125E+02   -.114E+02 0.155E+02 -.314E+01   0.296E-03 0.379E-03 0.227E-03
   -.197E+03 -.896E+02 -.279E+02   0.212E+03 0.937E+02 0.349E+02   -.143E+02 -.419E+01 -.116E+02   0.359E-04 0.164E-04 0.881E-03
   0.204E+03 0.768E+02 0.510E+01   -.222E+03 -.745E+02 -.438E+01   0.167E+02 -.194E+01 -.133E+01   0.376E-03 0.350E-03 0.761E-03
   -.230E+03 0.278E+01 -.219E+02   0.246E+03 -.560E+01 0.288E+02   -.150E+02 0.249E+01 -.112E+02   0.421E-03 0.650E-04 -.131E-02
   0.232E+03 0.804E+01 -.756E+00   -.250E+03 -.115E+02 0.853E+00   0.180E+02 0.336E+01 -.194E+00   -.791E-03 -.418E-04 -.991E-03
   -.129E+03 -.153E+03 -.119E+03   0.136E+03 0.163E+03 0.132E+03   -.767E+01 -.971E+01 -.130E+02   -.774E-04 -.122E-03 0.117E-02
   0.522E+02 -.510E+02 -.690E+02   -.577E+02 0.596E+02 0.795E+02   0.479E+01 -.782E+01 -.953E+01   0.963E-05 0.293E-03 0.119E-02
   -.118E+03 0.128E+03 -.202E+03   0.126E+03 -.138E+03 0.215E+03   -.775E+01 0.893E+01 -.130E+02   0.147E-03 -.408E-03 -.171E-02
   0.123E+03 0.137E+03 -.193E+03   -.131E+03 -.148E+03 0.205E+03   0.748E+01 0.106E+02 -.120E+02   -.386E-03 -.223E-03 -.124E-02
   0.119E+03 0.134E+03 0.194E+03   -.126E+03 -.145E+03 -.207E+03   0.659E+01 0.968E+01 0.125E+02   -.695E-03 -.363E-03 0.178E-03
   -.117E+03 0.111E+03 0.209E+03   0.123E+03 -.114E+03 -.224E+03   -.624E+01 -.105E+01 0.167E+02   0.233E-03 -.703E-03 0.521E-03
   0.104E+02 -.372E+02 0.433E+02   -.115E+02 0.474E+02 -.462E+02   -.630E+00 -.114E+02 -.147E+01   0.254E-03 0.344E-03 0.964E-05
   -.127E+03 -.133E+03 0.125E+03   0.133E+03 0.137E+03 -.140E+03   -.542E+01 0.536E-01 0.164E+02   -.160E-03 -.796E-04 0.280E-04
   -.534E+02 -.114E+02 -.307E+02   0.597E+02 0.503E+01 0.325E+02   -.722E+01 0.651E+01 0.265E+01   0.198E-03 -.190E-03 0.169E-02
   0.121E+03 0.147E+03 -.137E+03   -.128E+03 -.157E+03 0.149E+03   0.622E+01 0.108E+02 -.123E+02   0.210E-03 0.871E-04 0.906E-03
   -.130E+03 -.131E+03 -.197E+03   0.139E+03 0.143E+03 0.203E+03   -.108E+02 -.140E+02 -.263E+01   0.286E-03 0.538E-03 -.182E-02
   0.118E+03 -.112E+03 -.216E+03   -.124E+03 0.123E+03 0.228E+03   0.591E+01 -.107E+02 -.120E+02   -.176E-03 0.194E-03 -.128E-02
   0.118E+03 -.113E+03 0.216E+03   -.124E+03 0.123E+03 -.229E+03   0.548E+01 -.999E+01 0.132E+02   -.463E-03 0.221E-03 0.223E-03
   -.107E+03 -.104E+03 0.226E+03   0.109E+03 0.108E+03 -.242E+03   0.452E+00 -.134E+01 0.178E+02   0.589E-03 0.779E-03 0.544E-03
   0.118E+03 0.153E+03 0.135E+03   -.124E+03 -.163E+03 -.148E+03   0.517E+01 0.103E+02 0.121E+02   0.268E-03 0.120E-03 0.755E-04
   -.458E+02 -.280E+02 0.813E+02   0.467E+02 0.279E+02 -.937E+02   0.220E+01 -.404E+01 0.138E+02   0.633E-04 0.128E-03 -.270E-03
   0.854E+02 0.720E+02 -.364E+02   -.940E+02 -.704E+02 0.501E+02   0.576E+01 -.404E+01 -.156E+02   0.176E-03 -.652E-04 0.155E-02
   -.689E+02 0.955E+02 -.824E+02   0.825E+02 -.987E+02 0.945E+02   -.133E+02 0.326E+01 -.116E+02   -.220E-03 0.506E-04 0.965E-03
   0.568E+02 -.848E+02 -.190E+03   -.648E+02 0.837E+02 0.205E+03   0.523E+01 0.351E+01 -.169E+02   -.175E-03 0.183E-03 -.121E-02
   -.100E+03 -.865E+02 -.198E+03   0.116E+03 0.927E+02 0.205E+03   -.167E+02 -.829E+01 -.357E+01   0.303E-03 0.194E-03 -.924E-03
   -.846E+02 -.801E+02 0.207E+03   0.980E+02 0.832E+02 -.221E+03   -.129E+02 -.306E+01 0.134E+02   0.215E-03 0.122E-03 0.861E-03
   0.704E+02 -.951E+02 0.184E+03   -.836E+02 0.973E+02 -.197E+03   0.125E+02 -.178E+01 0.130E+02   -.190E-03 0.434E-03 0.111E-02
   -.652E+02 0.989E+02 0.820E+02   0.785E+02 -.102E+03 -.942E+02   -.129E+02 0.357E+01 0.116E+02   -.218E-03 0.522E-05 -.631E-03
   0.103E+03 0.750E+02 0.225E+02   -.117E+03 -.771E+02 -.342E+02   0.130E+02 0.184E+01 0.112E+02   0.278E-03 0.194E-03 -.915E-03
   0.683E+01 0.253E+03 0.195E+02   -.624E+01 -.271E+03 -.141E+02   -.997E+00 0.178E+02 -.525E+01   -.376E-03 -.500E-03 0.682E-03
   -.207E+02 -.243E+03 -.102E+03   0.148E+02 0.259E+03 0.108E+03   0.980E+01 -.141E+02 -.534E+01   0.603E-05 -.273E-03 -.371E-03
   -.326E+02 -.251E+03 0.101E+03   0.328E+02 0.270E+03 -.108E+03   -.409E+00 -.187E+02 0.647E+01   -.713E-04 -.140E-03 0.873E-03
   0.126E+02 0.255E+03 -.197E+02   -.131E+02 -.274E+03 0.144E+02   0.853E+00 0.188E+02 0.508E+01   -.138E-03 -.127E-03 -.863E-03
   0.108E+03 0.120E+03 0.207E+03   -.116E+03 -.129E+03 -.219E+03   0.820E+01 0.735E+01 0.126E+02   0.226E-03 -.578E-03 0.485E-03
   -.101E+03 0.116E+03 0.194E+03   0.109E+03 -.125E+03 -.207E+03   -.716E+01 0.100E+02 0.124E+02   0.170E-03 0.116E-03 0.461E-03
   0.976E+02 -.106E+03 0.104E+03   -.106E+03 0.114E+03 -.116E+03   0.886E+01 -.710E+01 0.116E+02   -.200E-03 -.516E-03 -.190E-03
   -.200E+03 -.160E+03 -.802E+02   0.215E+03 0.166E+03 0.777E+02   -.177E+02 -.293E+01 0.508E+00   0.115E-03 -.202E-03 -.598E-03
   -.153E+03 -.153E+03 0.614E+02   0.157E+03 0.167E+03 -.582E+02   -.657E+00 -.166E+02 -.675E+00   0.415E-04 -.195E-03 0.158E-02
   0.967E+02 -.113E+03 -.106E+03   -.105E+03 0.122E+03 0.118E+03   0.767E+01 -.825E+01 -.117E+02   -.170E-04 -.218E-03 0.789E-03
   -.822E+02 0.128E+03 -.188E+03   0.836E+02 -.141E+03 0.198E+03   0.218E+01 0.154E+02 -.936E+01   -.116E-03 -.840E-05 -.105E-02
   0.108E+03 0.124E+03 -.211E+03   -.115E+03 -.133E+03 0.223E+03   0.692E+01 0.862E+01 -.122E+02   0.244E-03 -.127E-03 -.999E-03
   0.254E+03 0.154E+02 0.566E+02   -.274E+03 -.155E+02 -.572E+02   0.189E+02 0.450E-01 0.779E+00   0.310E-04 -.891E-04 0.722E-03
   -.247E+03 -.653E+01 0.656E+02   0.263E+03 0.137E+01 -.627E+02   -.154E+02 0.836E+01 -.533E+01   0.427E-03 0.866E-04 0.129E-02
   0.253E+03 0.208E+02 -.597E+02   -.272E+03 -.206E+02 0.600E+02   0.182E+02 -.420E+00 -.406E+00   0.150E-03 -.176E-04 -.597E-03
   -.247E+03 -.457E+02 -.875E+02   0.264E+03 0.516E+02 0.921E+02   -.155E+02 -.938E+01 -.752E+01   0.198E-04 0.765E-04 -.100E-02
   -.495E+02 -.158E+02 -.229E+02   0.502E+02 0.162E+02 0.260E+02   -.693E-01 0.935E-01 -.142E+01   0.927E-04 -.129E-04 0.866E-03
   0.583E+02 0.560E+02 -.259E+02   -.567E+02 -.570E+02 0.258E+02   -.130E+01 -.158E+00 0.431E+00   0.153E-03 0.174E-03 0.649E-03
   -.706E+02 -.261E+02 -.706E+02   0.722E+02 0.276E+02 0.717E+02   -.418E+00 -.777E+00 -.396E+00   -.522E-04 0.742E-04 -.145E-02
   0.692E+02 -.229E+02 -.700E+02   -.682E+02 0.225E+02 0.692E+02   -.123E+01 0.636E+00 0.816E+00   -.359E-03 0.303E-04 -.881E-03
   0.685E+02 -.219E+02 0.697E+02   -.648E+02 0.226E+02 -.689E+02   -.299E+01 -.140E+00 -.769E+00   -.699E-03 0.200E-05 -.788E-04
   0.518E+02 0.613E+02 0.263E+02   -.476E+02 -.617E+02 -.247E+02   -.282E+01 -.759E+00 -.127E+01   0.345E-03 0.193E-03 0.237E-03
   0.110E+02 0.849E+02 0.641E+02   -.968E+01 -.812E+02 -.639E+02   -.960E+00 -.313E+01 -.344E+00   0.472E-05 -.541E-03 0.732E-03
   -.377E+01 0.863E+02 0.527E+02   0.344E+01 -.856E+02 -.528E+02   0.365E+00 -.109E+01 -.265E+00   -.248E-03 -.863E-04 0.391E-03
   -.459E+01 -.853E+02 -.111E+02   0.328E+01 0.826E+02 0.118E+02   0.714E+00 0.250E+01 -.598E+00   -.211E-03 -.251E-03 -.376E-03
   -.389E+02 -.690E+02 0.526E+02   0.383E+02 0.695E+02 -.542E+02   0.944E+00 0.213E-01 0.400E+00   0.189E-04 0.138E-04 0.726E-03
   -.299E+01 -.893E+02 0.104E+02   0.382E+01 0.875E+02 -.111E+02   -.509E+00 0.177E+01 0.574E+00   -.738E-04 -.530E-04 0.645E-03
   -.337E+00 0.875E+02 -.514E+02   -.161E+01 -.890E+02 0.519E+02   0.142E+01 0.419E+00 -.546E-01   -.238E-03 -.147E-03 -.625E-03
   0.125E+02 0.855E+02 -.655E+02   -.123E+02 -.846E+02 0.657E+02   -.161E+00 -.133E+01 0.205E+00   0.880E-04 -.102E-03 -.741E-03
   0.615E+02 0.215E+02 -.346E+02   -.609E+02 -.216E+02 0.327E+02   -.813E+00 -.190E+00 0.179E+01   -.226E-06 -.303E-04 0.551E-03
   0.600E+02 -.371E+01 -.107E+03   -.569E+02 0.536E+01 0.105E+03   -.232E+01 -.943E+00 0.232E+01   0.162E-03 0.884E-04 -.697E-03
   -.588E+02 -.160E+02 0.999E+02   0.583E+02 0.131E+02 -.997E+02   0.805E+00 0.211E+01 -.720E+00   0.228E-03 0.383E-03 0.765E-03
   0.600E+02 -.664E+01 0.104E+03   -.599E+02 0.655E+01 -.104E+03   -.560E+00 0.214E+00 -.121E+01   0.717E-04 -.374E-04 0.390E-03
   -.483E+02 -.352E+02 -.338E+02   0.488E+02 0.382E+02 0.358E+02   -.245E+00 -.140E+01 -.671E+00   0.176E-03 0.330E-04 -.510E-03
   0.613E+02 0.252E+02 0.331E+02   -.610E+02 -.252E+02 -.315E+02   -.571E+00 -.107E+00 -.157E+01   -.495E-04 -.850E-04 -.227E-03
   0.247E+02 0.167E+02 0.425E+01   -.135E-12 0.142E-12 0.497E-12   -.247E+02 -.167E+02 -.427E+01   0.684E-03 0.178E-02 0.421E-02

 POSITION                                       TOTAL-FORCE (eV/Angst)
      1.54003     -0.46520     15.41910         0.443262      0.269893     -0.249780
      1.54003      0.46520      6.17060        -0.186729      0.437155     -0.718636
      5.29573     -3.41776      8.12758         1.314807     -0.259753      1.754955
      3.10058     -1.20775      0.96369        -0.207074      0.546954     -1.606086
      3.10058      1.20775     10.21219         0.428705      0.156058      0.653149
      3.52448     -2.74728      6.08308         0.418876      0.319174      0.304902
      3.48026     -2.34893      3.41992         0.028422      0.546081     -0.440301
      0.00274      0.00252      2.98542        -0.728898     -0.407094     -0.417072
      0.00274     -0.00252     12.23392        -0.482265      0.374815     -0.188763
      0.00274     -0.00252     15.51158        -4.521003      1.124725      0.298742
      0.00274      0.00252      6.26308        -4.709199     -1.099052      0.375419
      1.98180      0.55219      4.62425         1.281945     -0.062034     -4.565934
     11.69520      0.55219      4.62425        -0.836437      0.410324     -0.602799
      1.98180     -0.55219     13.87275         1.001429     -0.331476     -4.291065
     11.69520     -0.55219     13.87275        -0.430992     -0.102522     -0.097499
      8.55086     -4.39354      2.39166         0.124065      0.371635      0.035668
      5.12614     -4.39354      2.39166        -0.676256      0.706101      0.932879
      8.55086      4.39354     11.64016         0.149409     -0.566991     -0.059796
      5.12614      4.39354     11.64016        -0.110259     -0.086954      0.340211
      5.12614      4.39354     16.10534        -0.314005     -0.445662     -0.156363
      8.55086      4.39354     16.10534         0.490722     -3.933340      1.970698
      5.12614     -4.39354      6.85684        -1.737796     -1.231273     -4.368890
      8.55086     -4.39354      6.85684         0.585105      3.834341      1.897905
      2.46733     -0.60892      2.31767        -0.907506      0.177693      4.384385
     11.20967     -0.60892      2.31767        -0.026058      0.005344      0.412495
      2.46733      0.60892     11.56617        -1.897201     -1.795069      3.512255
     11.20967      0.60892     11.56617        -0.102201      0.038147      0.462858
     11.20967      0.60892     16.17933        -0.348149      0.344248      0.010447
      2.46733      0.60892     16.17933         2.569739      2.847566      2.296118
     11.20967     -0.60892      6.93083        -0.382140     -0.191839     -0.305122
      2.46733     -0.60892      6.93083         3.114734     -4.150328      1.363203
      8.84218      4.18805      0.21457        -2.899802     -2.386552     -1.788473
      4.83482      4.18805      0.21457         0.307906      0.080736      0.532752
      8.84218     -4.18805      9.46307        -2.807051      2.397009     -2.001797
      4.83482     -4.18805      9.46307        -1.440933     -2.079621      3.384592
      4.83482     -4.18805     18.28243         0.539959      0.127832      0.070794
      8.84218     -4.18805     18.28243        -0.638591      0.454197      0.041284
      4.83482      4.18805      9.03393         0.395768      0.108398     -0.525364
      8.84218      4.18805      9.03393        -0.441919     -0.263118     -0.491727
      6.83850      2.98029     17.51296        -0.407104     -0.497260      0.136919
      6.83850     -2.98029      8.26446         3.989157      1.208760      0.091457
      6.83850     -2.98029      0.98404        -0.200175      0.307793     -0.025965
      6.83850      2.98029     10.23254         0.301459     -0.230813     -0.284866
      9.29215      2.10789     17.16707         0.105373     -0.706883     -0.152832
      4.38485      2.10789     17.16707         0.463923      0.208532     -0.205987
      9.29215     -2.10789      7.91857         0.331700      0.728490     -0.281628
      4.38485     -2.10789      7.91857        -2.725350      3.134307     -2.007120
      4.38485     -2.10789      1.32993         3.319207     -2.689782      2.541904
      9.29215     -2.10789      1.32993        -0.152552      0.349004      0.359998
      4.38485      2.10789     10.57843         3.589008      2.699484      0.841215
      9.29215      2.10789     10.57843        -0.447672     -0.136753      0.246615
     10.12645      0.00000      0.00000        -0.483629     -0.053334      0.213312
      3.55055      0.00000      0.00000         1.197912      3.192501     -2.450431
     10.12645      0.00000      9.24850        -0.639428     -0.213937     -0.179633
      3.55055      0.00000      9.24850         1.095723     -3.510082     -2.858345
      1.54003      0.46520      3.07790         0.555994      0.505240      1.637720
     12.13697      0.46520      3.07790         0.335327     -1.164334      0.321834
      1.54003     -0.46520     12.32640         1.069901      0.671685      0.610053
     12.13697     -0.46520     12.32640        -0.182292      0.201973     -0.027000
     12.13697     -0.46520     15.41910         0.714891      0.546013     -0.050374
     12.13697      0.46520      6.17060         1.327935     -1.135050      0.293536
      8.38127      3.41776     17.37608         0.337246      0.499919     -0.070346
      5.29573      3.41776     17.37608         0.033812     -0.346946     -0.359579
      8.38127     -3.41776      8.12758        -0.597048     -0.180633      0.091955
      5.29573     -3.41776      1.12092         0.481322      0.508607     -1.220356
      8.38127     -3.41776      1.12092         0.322928     -0.090349     -0.199327
      5.29573      3.41776     10.36942        -0.514892     -0.972688      0.487272
      8.38127      3.41776     10.36942         0.027669     -0.382478      0.459384
     10.57642     -1.20775      0.96369        -0.204153     -0.247343     -0.132230
     10.57642      1.20775     10.21219         0.772843      0.694667      0.023964
      3.10058      1.20775     17.53331         0.281511     -0.734675     -0.551445
     10.57642      1.20775     17.53331        -0.419782      0.115206     -0.740702
      3.10058     -1.20775      8.28481         0.214632      1.569612      1.308515
     10.57642     -1.20775      8.28481        -0.257786     -0.134200     -0.027733
    total drift:                               -0.012525     -0.003722     -0.012893

  FREE ENERGIE OF THE ION-ELECTRON SYSTEM (eV)
  free  energy   TOTEN  =      -557.10852146 eV

  energy  without entropy=     -556.58122615  energy(sigma->0) =     -556.84487380