 vasp.5.4.4.18Apr17-6-g9f103f2a35 (build Dec 21 2018 14:18:36) complex

 executed on             LinuxIFC date 2022.04.06  10:19:17

 INCAR:
 POTCAR:  PAW_PBE Al 04Jan2001
 POTCAR:   PAW_PBE Cu 22Jun2005
 POTCAR:   PAW_PBE O 08Apr2002
 POTCAR:   PAW_PBE Si 05Jan2001

 POTCAR:  PAW_PBE Al 04Jan2001
   VRHFIN =Al: s2p1

   TITEL  = PAW_PBE Al 04Jan2001
   POMASS =   26.982; ZVAL   =    3.000    mass and valenz
   ENMAX  =  240.300; ENMIN  =  180.225 eV
   QCUT   =   -4.203; QGAM   =    8.405    optimization parameters

   Description
     l     E      TYP  RCUT    TYP  RCUT
     0   .000     23  1.900
     0   .000     23  1.900
     1   .000     23  1.900
     1  1.000     23  1.900
     2   .000      7  1.900

 POTCAR:   PAW_PBE Cu 22Jun2005
   VRHFIN =Cu: d10 p1

   TITEL  = PAW_PBE Cu 22Jun2005
   POMASS =   63.546; ZVAL   =   11.000    mass and valenz
   ENMAX  =  295.446; ENMIN  =  221.585 eV

 POTCAR:   PAW_PBE O 08Apr2002
   VRHFIN =O: s2p4

   TITEL  = PAW_PBE O 08Apr2002
   POMASS =   16.000; ZVAL   =    6.000    mass and valenz
   ENMAX  =  400.000; ENMIN  =  300.000 eV
   QCUT   =   -5.520; QGAM   =   11.041    optimization parameters

[...]

 POTCAR:   PAW_PBE Si 05Jan2001
   VRHFIN =Si: s2p2

   TITEL  = PAW_PBE Si 05Jan2001
   POMASS =   28.085; ZVAL   =    4.000    mass and valenz
   ENMAX  =  245.345; ENMIN  =  184.009 eV
   QCUT   =   -4.246; QGAM   =    8.493    optimization parameters

   Description
     l     E      TYP  RCUT    TYP  RCUT
     0   .000     23  1.900
     0   .000     23  1.900
     1   .000     23  1.900
     1   .000     23  1.900
     2   .000      7  1.900

 Optimization of the real space projectors (new method)

 maximal supplied QI-value         = 19.84
 optimisation between [QCUT,QGAM] = [ 10.12, 20.44] = [ 28.68,116.96] Ry
 Optimized for a Real-space Cutoff    1.26 Angstroem

   l    n(q)    QCUT    max X(q) W(low)/X(q) W(high)/X(q)  e(spline)
   0      8    10.119    13.410    0.28E-04    0.17E-04    0.51E-08
   0      8    10.119   140.052    0.10E-03    0.16E-03    0.42E-07
   1      7    10.119     9.624    0.38E-04    0.42E-05    0.15E-07
   1      7    10.119    53.353    0.23E-03    0.17E-03    0.13E-06
 Optimization of the real space projectors (new method)

[...]

   l    n(q)    QCUT    max X(q) W(low)/X(q) W(high)/X(q)  e(spline)
   0      9    10.150     4.192    0.32E-04    0.13E-04    0.13E-06
   0      9    10.150     8.473    0.18E-03    0.20E-03    0.43E-06
   1      9    10.150     2.474    0.32E-04    0.33E-04    0.64E-07
   1      9    10.150     3.912    0.13E-03    0.16E-03    0.33E-06
 Optimization of the real space projectors (new method)

 maximal supplied QI-value         = 19.84
 optimisation between [QCUT,QGAM] = [ 10.12, 20.44] = [ 28.68,116.96] Ry
 Optimized for a Real-space Cutoff    1.38 Angstroem

   l    n(q)    QCUT    max X(q) W(low)/X(q) W(high)/X(q)  e(spline)
   0      8    10.119     8.708    0.16E-04    0.67E-05    0.60E-08
   0      8    10.119   106.241    0.56E-04    0.11E-03    0.54E-07
   1      8    10.119     5.901    0.16E-04    0.16E-05    0.22E-07
   1      8    10.119    73.241    0.22E-03    0.17E-03    0.18E-06
PAW_PBE Al 04Jan2001                    :
 PAW_PBE Cu 22Jun2005                   :
 PAW_PBE O 08Apr2002                    :
 PAW_PBE Si 05Jan2001                   :

 POSCAR: Al Cu O Si
  positions in direct lattice
  velocities in cartesian coordinates
 exchange correlation table for  LEXCH =        8
   RHO(1)=    0.500       N(1)  =     2000
   RHO(2)=  100.500       N(2)  =     4000

 ion  position               nearest neighbor table
   1  0.418  0.329  0.625-  75 1.61  15 1.61  39 1.61  63 1.61 117 3.02 115 3.17 132 3.17 143 3.20

   2  0.671  0.089  0.625-  76 1.61  16 1.61  40 1.61  64 1.61 116 3.02 117 3.17 130 3.17 141 3.20

[...]

 147  0.752  0.752  0.500- 107 1.61 100 1.61  21 1.61  27 1.61 141 3.11 142 3.11

IMPORTANT INFORMATION: All symmetrisations will be switched off!
NOSYMM: (Re-)initialisation of all symmetry stuff for point group C_1.

 KPOINTS: Automatic

Automatic generation of k-mesh.
Space group operators:
 irot       det(A)        alpha          n_x          n_y          n_z        tau_x        tau_y        tau_z
    1     1.000000     0.000000     1.000000     0.000000     0.000000     0.000000     0.000000     0.000000

 Subroutine IBZKPT returns following result:

 Found      1 irreducible k-points:

 Following reciprocal coordinates:
            Coordinates               Weight
  0.000000  0.000000  0.000000      1.000000

 Following cartesian coordinates:
            Coordinates               Weight
  0.000000  0.000000  0.000000      1.000000

 SYSTEM =  ZEOLITE_AFG_energy_DIMER
 POSCAR =  Al Cu O Si

 Startparameter for this run:
   NWRITE =      2    write-flag & timer
   PREC   = accura    normal or accurate (medium, high low for compatibility)
   ISTART =      0    job   : 0-new  1-cont  2-samecut
   ICHARG =      2    charge: 1-file 2-atom 10-const
   ISPIN  =      1    spin polarized calculation?
   LNONCOLLINEAR =      F non collinear calculations
   LSORBIT =      F    spin-orbit coupling
   INIWAV =      1    electr: 0-lowe 1-rand  2-diag
   LASPH  =      F    aspherical Exc in radial PAW
   METAGGA=      F    non-selfconsistent MetaGGA calc.

 Electronic Relaxation 1
   ENCUT  =  400.0 eV  29.40 Ry    5.42 a.u.  20.46 20.46 33.90*2*pi/ulx,y,z
   ENINI  =  400.0     initial cutoff
   ENAUG  =  605.4 eV  augmentation charge cutoff
   NELM   =    100;   NELMIN=  5; NELMDL=-12     # of ELM steps
   EDIFF  = 0.1E-05   stopping-criterion for ELM
   LREAL  =      T    real-space projection
   NLSPLINE    = F    spline interpolate recip. space projectors
   LCOMPAT=      F    compatible to vasp.4.4
   GGA_COMPAT  = T    GGA compatible to vasp.4.4-vasp.4.6
   LMAXPAW     = -100 max onsite density
   LMAXMIX     =    2 max onsite mixed and CHGCAR
   VOSKOWN=      0    Vosko Wilk Nusair interpolation
   ROPT   =   -0.00025  -0.00025  -0.00025  -0.00025
 Ionic relaxation
   EDIFFG = -.5E-02   stopping-criterion for IOM
   NSW    =      0    number of steps for IOM
   NBLOCK =      1;   KBLOCK =      1    inner block; outer block
   IBRION =     -1    ionic relax: 0-MD 1-quasi-New 2-CG
   NFREE  =      2    steps in history (QN), initial steepest desc. (CG)
   ISIF   =      2    stress and relaxation
   IWAVPR =     10    prediction:  0-non 1-charg 2-wave 3-comb
   ISYM   =      0    0-nonsym 1-usesym 2-fastsym
   LCORR  =      T    Harris-Foulkes like correction to forces

   POTIM  = 0.0150    time-step for ionic-motion
   TEIN   =    0.0    initial temperature
   TEBEG  =    0.0;   TEEND  =   0.0 temperature during run
   SMASS  =  -3.00    Nose mass-parameter (am)
   estimated Nose-frequenzy (Omega)   =  0.10E-29 period in steps =****** mass=  -0.360E-26a.u.
   SCALEE = 1.0000    scale energy and forces
   NPACO  =    256;   APACO  = 16.0  distance and # of slots for P.C.
   PSTRESS=    0.0 pullay stress

  Mass of Ions in am
   POMASS =  26.98 63.55 16.00 28.09
  Ionic Valenz
   ZVAL   =   3.00 11.00  6.00  4.00
  Atomic Wigner-Seitz radii
  virtual crystal weights
   VCA    =   1.00  1.00  1.00  1.00
   NELECT =     787.0000    total number of electrons
   NUPDOWN=      -1.0000    fix difference up-down

 DOS related values:
   EMIN   =  10.00;   EMAX   =-10.00  energy-range for DOS
   EFERMI =   0.00
   ISMEAR =     0;   SIGMA  =   0.20  broadening in eV -4-tet -1-fermi 0-gaus

 Electronic relaxation 2 (details)
   IALGO  =     48    algorithm
   LDIAG  =      T    sub-space diagonalisation (order eigenvalues)
   LSUBROT=      F    optimize rotation matrix (better conditioning)
   TURBO    =      0    0=normal 1=particle mesh
   IRESTART =      0    0=no restart 2=restart with 2 vectors
   NREBOOT  =      0    no. of reboots
   NMIN     =      0    reboot dimension
   EREF     =   0.00    reference energy to select bands
   IMIX   =      4    mixing-type and parameters
     AMIX     =   0.40;   BMIX     =  1.00
     AMIX_MAG =   1.60;   BMIX_MAG =  1.00
     AMIN     =   0.10
     WC   =   100.;   INIMIX=   1;  MIXPRE=   1;  MAXMIX= -45

 Intra band minimization:
   WEIMIN = 0.0000     energy-eigenvalue tresh-hold
   EBREAK =  0.53E-09  absolut break condition
   DEPER  =   0.30     relativ break condition

   TIME   =   0.40     timestep for ELM

  volume/ion in A,a.u.               =      19.28       130.13
  Fermi-wavevector in a.u.,A,eV,Ry     =   1.067977  2.018184 15.518470  1.140575
  Thomas-Fermi vector in A             =   2.203611

 Write flags
   LWAVE        =      F    write WAVECAR
   LDOWNSAMPLE  =      F    k-point downsampling of WAVECAR
   LCHARG       =      F    write CHGCAR
   LVTOT        =      F    write LOCPOT, total local potential
   LVHAR        =      F    write LOCPOT, Hartree potential only
   LELF         =      F    write electronic localiz. function (ELF)
   LORBIT       =      0    0 simple, 1 ext, 2 COOP (PROOUT), +10 PAW based schemes

 Dipole corrections
   LMONO  =      F    monopole corrections only (constant potential shift)
   LDIPOL =      F    correct potential (dipole corrections)
   IDIPOL =      0    1-x, 2-y, 3-z, 4-all directions
   EPSILON=  1.0000000 bulk dielectric constant

 Exchange correlation treatment:
   GGA     =    PE    GGA type
   VOSKOWN=      0    Vosko Wilk Nusair interpolation
   LHFCALC =     F    Hartree Fock is set to
   LHFONE  =     F    Hartree Fock one center treatment
   AEXX    =    0.0000 exact exchange contribution

 Linear response parameters
   LEPSILON=     F    determine dielectric tensor
   LRPA    =     F    only Hartree local field effects (RPA)
   LNABLA  =     F    use nabla operator in PAW spheres
   LVEL    =     F    velocity operator in full k-point grid
   LINTERFAST=   F  fast interpolation
   KINTER  =     0    interpolate to denser k-point grid
   CSHIFT  =0.1000    complex shift for real part using Kramers Kronig
   OMEGAMAX=  -1.0    maximum frequency
   DEG_THRESHOLD= 0.2000000E-02 threshold for treating states as degnerate
   RTIME   =   -0.100 relaxation time in fs
  (WPLASMAI=    0.000 imaginary part of plasma frequency in eV, 0.658/RTIME)
   DFIELD  = 0.0000000 0.0000000 0.0000000 field for delta impulse in time

 Orbital magnetization related:
   ORBITALMAG=     F  switch on orbital magnetization
   LCHIMAG   =     F  perturbation theory with respect to B field
   DQ        =  0.001000  dq finite difference perturbation B field
   LLRAUG    =     F  two centre corrections for induced B field

 Static calculation
 charge density and potential will be updated during run
 non-spin polarized calculation
 RMM-DIIS sequential band-by-band
 perform sub-space diagonalisation
    before iterative eigenvector-optimisation
 modified Broyden-mixing scheme, WC =      100.0
 initial mixing is a Kerker type mixing with AMIX =  0.4000 and BMIX =      1.0000
 Hartree-type preconditioning will be used
 using additional bands           78
 real space projection scheme for non local part
 use partial core corrections
 calculate Harris-corrections to forces
   (improved forces if not selfconsistent)
 use gradient corrections
 use of overlap-Matrix (Vanderbilt PP)
[...]
     0.000000000  0.000000000 20.789000000     0.000000000  0.000000000  0.048102362

  length of vectors
    12.548000000 12.548000000 20.789000000     0.092022676  0.092022676  0.048102362

 FORCES acting on ions
    electron-ion (+dipol)            ewald-force                    non-local-force                 convergence-correction
   -.254E+02 -.407E+02 -.253E+02   0.253E+02 0.403E+02 0.253E+02   0.750E+00 0.965E+00 -.753E-02   -.734E-02 -.371E-02 0.151E-01
   0.562E+02 -.120E+02 -.106E+02   -.555E+02 0.118E+02 0.107E+02   -.117E+01 0.145E+00 -.159E+00   -.350E-02 0.334E-02 0.868E-02
   -.351E+02 0.353E+02 0.336E+02   0.350E+02 -.347E+02 -.337E+02   0.700E+00 -.101E+01 -.716E-01   -.141E-02 -.730E-04 -.735E-02
   -.376E+02 -.383E+02 -.104E+02   0.376E+02 0.378E+02 0.105E+02   0.756E+00 0.975E+00 0.534E-01   -.370E-02 -.250E-02 -.963E-02
   -.343E+01 -.132E+01 0.230E+01   0.886E+00 0.241E+01 -.265E+01   0.150E+01 -.884E+00 0.707E-01   -.108E-01 0.103E-01 0.514E-03
   0.335E+02 -.404E+02 0.191E+02   -.333E+02 0.399E+02 -.191E+02   -.772E+00 0.853E+00 0.153E-01   -.504E-03 -.248E-02 -.165E-02
   0.310E+02 0.514E+02 -.107E+02   -.309E+02 -.511E+02 0.108E+02   -.796E+00 -.840E+00 0.397E-01   0.654E-02 0.764E-03 -.482E-03
   -.128E+02 -.163E+02 -.195E+02   0.127E+02 0.162E+02 0.196E+02   0.124E+00 0.498E+00 -.782E-01   -.155E-02 -.197E-02 0.969E-02
   -.137E+02 0.264E+02 -.230E+02   0.133E+02 -.264E+02 0.228E+02   0.294E+00 -.413E+00 0.130E-02   0.241E-02 -.190E-02 0.151E-01
   0.337E+03 0.166E+03 -.142E+03   -.331E+03 -.176E+03 0.135E+03   -.669E+01 0.114E+02 0.632E+01   -.477E-01 0.749E-01 0.613E-01
   0.365E+03 0.144E+03 0.210E+03   -.374E+03 -.140E+03 -.203E+03   0.731E+01 -.292E+01 -.575E+01   0.817E-01 -.417E-01 -.460E-01
   0.118E+03 0.784E+02 0.687E+02   -.125E+03 -.831E+02 -.707E+02   0.701E+01 0.440E+01 0.176E+01   0.187E-02 0.146E-02 -.183E-01
   -.134E+03 0.553E+02 0.630E+02   0.142E+03 -.582E+02 -.652E+02   -.713E+01 0.288E+01 0.219E+01   0.180E-02 0.673E-03 -.177E-01
   0.143E+02 -.132E+03 0.586E+02   -.151E+02 0.140E+03 -.600E+02   0.468E+00 -.712E+01 0.937E+00   -.277E-02 -.520E-03 -.158E-01
   -.741E+02 -.950E+02 -.681E+02   0.821E+02 0.973E+02 0.722E+02   -.960E+01 -.871E+00 -.774E+01   -.140E-01 -.528E-02 0.384E-01
   0.129E+03 -.633E+02 -.363E+02   -.135E+03 0.700E+02 0.407E+02   0.521E+01 -.918E+01 -.821E+01   -.190E-02 0.754E-02 0.264E-01
   -.621E+02 0.157E+03 -.641E+02   0.638E+02 -.164E+03 0.626E+02   -.172E+01 0.739E+01 0.114E+01   0.131E-01 -.323E-02 0.300E-01
   -.121E+03 0.750E+02 0.442E+02   0.130E+03 -.770E+02 -.401E+02   -.110E+02 0.361E+00 -.779E+01   -.256E-02 -.345E-02 -.215E-01
   0.125E+03 0.591E+02 0.713E+02   -.132E+03 -.623E+02 -.737E+02   0.699E+01 0.320E+01 0.251E+01   0.290E-02 0.816E-04 -.169E-01
   -.171E+02 -.143E+03 0.603E+02   0.181E+02 0.150E+03 -.623E+02   -.870E+00 -.744E+01 0.190E+01   0.227E-03 0.114E-02 -.148E-01
   0.776E+02 -.130E+03 -.913E+02   -.837E+02 0.135E+03 0.906E+02   0.622E+01 -.462E+01 -.167E+00   0.752E-02 0.108E-01 0.396E-01
   -.125E+03 -.171E+02 -.574E+01   0.131E+03 0.154E+02 -.185E+01   -.553E+01 0.429E+01 0.110E+02   -.610E-02 -.479E-02 0.227E-01
   0.414E+02 0.137E+03 -.834E+01   -.459E+02 -.142E+03 0.151E+01   0.655E+01 0.318E+01 0.101E+02   0.369E-02 -.267E-02 0.321E-01
   -.123E+03 -.780E+02 0.423E+01   0.132E+03 0.801E+02 -.836E+01   -.110E+02 -.398E+00 0.779E+01   -.522E-04 -.709E-02 -.268E-01
   0.132E+03 -.569E+02 -.149E+02   -.140E+03 0.599E+02 0.168E+02   0.702E+01 -.310E+01 -.171E+01   -.842E-03 0.280E-02 -.150E-01
   -.194E+02 0.143E+03 -.124E+02   0.204E+02 -.150E+03 0.142E+02   -.773E+00 0.747E+01 -.160E+01   0.135E-02 0.789E-03 -.147E-01
   0.636E+01 -.807E+02 -.904E+02   -.102E+02 0.785E+02 0.925E+02   0.320E+01 0.166E+01 -.212E+01   0.298E-01 0.407E-01 0.250E-01
   -.125E+03 0.502E+02 -.742E+02   0.132E+03 -.481E+02 0.821E+02   -.603E+01 -.482E+01 -.117E+02   0.507E-03 -.104E-02 0.236E-01
   0.306E+02 -.874E+02 -.746E+02   -.354E+02 0.915E+02 0.818E+02   0.698E+01 -.226E+01 -.106E+02   -.226E-02 -.928E-02 0.151E-01
   0.119E+03 -.878E+02 -.135E+02   -.125E+03 0.926E+02 0.152E+02   0.694E+01 -.455E+01 -.136E+01   -.400E-02 -.383E-03 -.160E-01
   -.133E+03 -.526E+02 -.158E+02   0.140E+03 0.555E+02 0.178E+02   -.703E+01 -.296E+01 -.189E+01   -.769E-03 -.143E-02 -.148E-01
   0.143E+02 0.138E+03 -.103E+02   -.150E+02 -.145E+03 0.116E+02   0.381E+00 0.728E+01 -.788E+00   0.571E-02 0.372E-02 -.238E-01
   -.258E+02 0.150E+02 -.429E+02   0.320E+02 -.159E+02 0.393E+02   -.722E+01 -.995E+00 0.695E+01   -.284E-01 0.144E-01 0.216E-01
   -.712E+01 0.956E+02 -.132E+03   0.181E+01 -.993E+02 0.136E+03   0.467E+01 0.357E+01 -.501E+01   0.305E-01 -.813E-02 0.279E-01
   -.211E+02 -.148E+03 -.533E+02   0.231E+02 0.156E+03 0.559E+02   -.221E+01 -.787E+01 -.289E+01   0.177E-02 0.390E-02 0.197E-01
   0.101E+03 0.140E+03 0.818E+02   -.107E+03 -.150E+03 -.834E+02   0.608E+01 0.964E+01 0.211E+01   0.468E-02 0.717E-02 -.167E-01
   -.205E+03 0.481E+01 0.508E+02   0.218E+03 -.373E+01 -.517E+02   -.122E+02 -.101E+01 0.977E+00   -.162E-03 -.817E-03 -.111E-01
   0.106E+03 -.143E+03 0.362E+02   -.116E+03 0.149E+03 -.310E+02   0.111E+02 -.391E+01 -.878E+01   -.312E-02 -.432E-02 -.792E-02
   -.102E+03 -.163E+03 -.200E+02   0.110E+03 0.170E+03 0.138E+02   -.959E+01 -.505E+01 0.956E+01   -.674E-02 -.107E-01 0.164E-01
   0.200E+03 -.186E+02 -.722E+01   -.210E+03 0.221E+02 0.383E+00   0.936E+01 -.599E+01 0.104E+02   -.109E-02 0.953E-02 0.377E-02
   -.111E+03 0.181E+03 -.392E+02   0.118E+03 -.191E+03 0.387E+02   -.733E+01 0.958E+01 0.335E+00   0.677E-02 -.272E-05 0.125E-01
   -.969E+02 0.150E+03 0.753E+02   0.105E+03 -.157E+03 -.816E+02   -.957E+01 0.484E+01 0.964E+01   -.739E-02 0.924E-03 -.972E-02
   0.166E+03 0.151E+02 0.954E+02   -.178E+03 -.140E+02 -.975E+02   0.111E+02 -.647E+00 0.306E+01   0.826E-02 -.203E-02 -.180E-01
   -.993E+02 -.177E+03 0.475E+02   0.107E+03 0.187E+03 -.481E+02   -.745E+01 -.954E+01 0.511E+00   0.447E-03 0.164E-03 -.101E-01
   0.102E+03 -.183E+03 -.452E+02   -.107E+03 0.193E+03 0.444E+02   0.569E+01 -.105E+02 0.800E+00   -.255E-02 0.226E-02 0.138E-01
   -.199E+03 0.422E+01 -.251E+02   0.211E+03 -.505E+01 0.237E+02   -.111E+02 0.681E+00 0.170E+01   -.514E-02 -.304E-02 0.862E-02
   0.107E+03 0.167E+03 -.458E+02   -.116E+03 -.173E+03 0.503E+02   0.106E+02 0.472E+01 -.800E+01   0.855E-02 0.308E-02 0.830E-02
   -.111E+03 -.160E+03 -.345E+02   0.118E+03 0.167E+03 0.408E+02   -.966E+01 -.499E+01 -.963E+01   -.410E-02 -.977E-02 -.888E-02
   0.204E+03 -.600E+01 -.138E+02   -.216E+03 0.508E+01 0.141E+02   0.117E+02 0.905E+00 -.248E-01   -.970E-03 0.452E-02 -.106E-01
   -.104E+03 0.178E+03 -.185E+02   0.111E+03 -.188E+03 0.190E+02   -.729E+01 0.943E+01 -.328E+00   0.468E-02 0.115E-02 -.534E-02
   0.625E+02 0.511E+02 0.847E+02   -.677E+02 -.607E+02 -.846E+02   0.512E+01 0.895E+01 0.436E-01   0.147E-01 0.269E-01 -.171E-01
   -.202E+03 0.932E+01 0.157E+02   0.214E+03 -.811E+01 -.143E+02   -.125E+02 -.116E+01 -.180E+01   -.168E-02 -.191E-02 0.219E-02
   0.109E+03 -.113E+03 0.390E+02   -.119E+03 0.119E+03 -.440E+02   0.112E+02 -.340E+01 0.853E+01   -.142E-02 -.108E-01 -.490E-04
   0.108E+03 -.176E+03 -.207E+02   -.113E+03 0.187E+03 0.218E+02   0.564E+01 -.105E+02 -.118E+01   -.456E-02 0.204E-04 -.350E-02
   -.203E+03 -.874E-01 -.163E+02   0.215E+03 -.963E+00 0.170E+02   -.116E+02 0.103E+01 -.681E+00   -.106E-02 -.427E-02 -.704E-02
   0.105E+03 0.165E+03 0.365E+01   -.114E+03 -.171E+03 -.890E+01   0.110E+02 0.428E+01 0.879E+01   0.677E-02 0.751E-02 -.124E-01
   -.548E+02 0.124E+03 0.299E+02   0.617E+02 -.131E+03 -.243E+02   -.845E+01 0.460E+01 -.893E+01   -.182E-01 0.973E-02 -.673E-02
   -.347E+02 0.578E+02 0.105E+03   0.334E+02 -.593E+02 -.107E+03   -.473E+00 0.187E+01 0.215E+01   0.404E-01 -.101E-01 -.140E-01
   -.991E+02 -.178E+03 0.165E+02   0.107E+03 0.188E+03 -.159E+02   -.776E+01 -.980E+01 -.386E+00   0.472E-03 0.442E-03 0.811E-03
   0.151E+03 -.912E+02 0.686E+02   -.172E+03 0.103E+03 -.659E+02   0.206E+02 -.110E+02 -.256E+01   0.315E-02 0.396E-02 -.137E-01
[...]
   -.490E+02 -.711E+02 0.245E+02   0.514E+02 0.712E+02 -.246E+02   -.109E+01 0.696E+00 0.206E-01   0.136E-02 0.591E-03 -.371E-02
   -.234E+02 0.612E+02 0.312E+02   0.239E+02 -.580E+02 -.311E+02   -.315E+00 -.311E+01 0.835E-01   -.689E-02 0.287E-02 -.324E-02
   -.830E+02 0.690E+01 -.133E+02   0.816E+02 -.663E+01 0.132E+02   0.180E+01 -.331E+00 0.678E-01   0.280E-04 -.383E-02 -.537E-04
   0.360E+02 -.771E+02 -.189E+02   -.355E+02 0.755E+02 0.190E+02   -.661E+00 0.193E+01 -.665E-01   0.294E-03 0.116E-02 0.226E-02
   -.232E+02 0.337E+02 0.176E+02   0.232E+02 -.332E+02 -.179E+02   0.333E+00 -.787E+00 0.135E+00   0.278E-02 0.575E-04 -.136E-01
   -.222E+02 -.326E+02 0.140E+02   0.222E+02 0.321E+02 -.139E+02   0.245E+00 0.797E+00 -.153E-01   -.732E-03 -.926E-03 -.109E-01
   0.410E+02 -.212E+01 0.181E+02   -.408E+02 0.222E+01 -.182E+02   -.672E+00 -.836E-01 0.553E-01   -.436E-05 0.395E-03 -.111E-01
   0.133E+02 -.388E+02 -.277E+02   -.107E+02 0.402E+02 0.290E+02   -.205E+01 -.557E+00 -.104E+01   0.113E-02 0.503E-02 0.168E-01
   -.323E+02 0.361E+02 -.586E+02   0.360E+02 -.348E+02 0.612E+02   -.259E+01 -.120E+01 -.119E+01   0.151E-01 -.252E-03 0.200E-01
   -.697E+01 -.141E+02 -.343E+02   0.640E+01 0.140E+02 0.347E+02   0.544E+00 0.167E+00 -.193E+00   -.872E-02 -.138E-02 0.203E-01
   0.173E+02 0.354E+02 0.191E+02   -.171E+02 -.348E+02 -.194E+02   -.367E+00 -.829E+00 0.779E-01   0.176E-02 0.291E-03 -.110E-01
   0.201E+02 -.355E+02 0.153E+02   -.198E+02 0.351E+02 -.153E+02   -.488E+00 0.682E+00 0.188E-01   -.361E-04 0.801E-03 -.994E-02
   -.411E+02 -.676E+00 0.160E+02   0.441E+02 0.699E+00 -.159E+02   -.182E+01 0.365E-01 -.282E-01   0.347E-04 -.366E-02 -.170E-01
   -.769E+01 -.465E+02 -.606E+02   0.950E+01 0.465E+02 0.624E+02   -.121E+01 -.456E-01 -.680E+00   0.131E-01 0.114E-01 0.216E-01
   0.205E+02 -.515E+01 -.242E+01   -.178E-14 0.497E-13 0.213E-13   -.207E+02 0.499E+01 0.238E+01   0.187E+00 0.160E+00 0.389E-01

 POSITION                                       TOTAL-FORCE (eV/Angst)
      4.69107     -0.96607     13.00144         0.673827      0.504909      0.073997
      4.76510     -6.32127     13.00144        -0.493495     -0.026572      0.022756
      4.69107      0.96607      2.60694         0.620763     -0.414774     -0.175358
      4.69107     -0.96607     18.18206         0.677703      0.386706      0.158203
      4.69107      0.96607      7.78756        -1.115017      0.282882     -0.304542
      1.59109      2.67977      5.19725        -0.642712      0.347494     -0.018002
      1.59109     -2.67977     15.59175        -0.674073     -0.438678      0.140973
      1.55470      2.69281     10.39450         0.005797      0.340345      0.013804
      1.55470     -2.69281     10.39450        -0.156336     -0.433096     -0.203513
      6.62126     -1.27376      8.81891        -0.162437      0.478061     -0.549345
      8.89456     -3.25454      7.23038        -1.930814      0.914771      1.179912
      8.50817      0.37491      1.25981         0.205779     -0.252971     -0.202696
      7.96923      7.18084      1.25981         0.179796     -0.008104      0.006292
      2.34459      3.31114      1.25981        -0.303564      0.222555     -0.418201
      4.03983     -0.37491     11.65431        -1.615974      1.487761     -3.595119
      4.57877     -7.18084     11.65431        -0.553907     -2.452988     -3.783435
     10.20341     -3.31114     11.65431        -0.032279     -0.184837     -0.319485
      4.03983      0.37491      1.25981        -1.984061     -1.675311     -3.665751
      4.57877      7.18084      1.25981        -0.204488      0.042440      0.105290
     10.20341      3.31114      1.25981         0.150536      0.184141     -0.106351
      8.50817     -0.37491     11.65431         0.132879      0.302409     -0.830912
      7.96923     -7.18084     11.65431         0.420476      2.614013      3.398422
      2.34459     -3.31114     11.65431         2.052066     -1.576430      3.264527
      4.03983     -0.37491     19.52919        -1.970059      1.658558      3.642490
      4.57877     -7.18084     19.52919        -0.207064     -0.088356      0.167390
     10.20341     -3.31114     19.52919         0.203721     -0.163459      0.220963
      8.50817      0.37491      9.13469        -0.546185     -0.530535      0.041301
      7.96923      7.18084      9.13469         0.341206     -2.773191     -3.701266
      2.34459      3.31114      9.13469         2.156977      1.823448     -3.416597
      8.50817     -0.37491     19.52919         0.207588      0.241038      0.321763
      7.96923     -7.18084     19.52919         0.204724     -0.048185      0.111638
      2.34459     -3.31114     19.52919        -0.340235     -0.182555      0.471774
      4.03983      0.37491      9.13469        -1.052775     -1.885673      3.367597
      4.57877      7.18084      9.13469        -0.569628     -0.167126     -0.849929
     10.20341      3.31114      9.13469        -0.254994      0.145959     -0.317557
      8.52762      0.25211      3.88339         0.298683     -0.583692      0.558344
      8.06585      7.25908      3.88339         0.188824      0.067012      0.088767
      2.22852      3.35569      3.88339         1.780058      1.873997     -3.572851
      4.02038     -0.25211     14.27789        -1.836064      1.917290      3.395941
      4.48215     -7.25908     14.27789        -0.707250     -2.577866      3.574312
     10.31948     -3.35569     14.27789        -0.035255     -0.270432     -0.174601
      4.02038      0.25211      3.88339        -1.819397     -1.943947      3.358522
      4.48215      7.25908      3.88339        -0.447287      0.357660      0.862154
     10.31948      3.35569      3.88339        -0.036846      0.266227     -0.100441
      8.52762     -0.25211     14.27789         0.079759      0.305727      0.029049
      8.06585     -7.25908     14.27789         0.388150     -0.149276      0.320457
      2.22852     -3.35569     14.27789         1.698270     -1.731047     -3.423481
      4.02038     -0.25211     16.90561        -1.837500      1.925160     -3.371866
      4.48215     -7.25908     16.90561        -0.288773     -0.017564      0.243798
     10.31948     -3.35569     16.90561        -0.014117     -0.292959      0.157166
      8.52762      0.25211      6.51111        -0.098607     -0.612870      0.212556
      8.06585      7.25908      6.51111         0.116086      0.042772     -0.337688
      2.22852      3.35569      6.51111         1.862410      2.083226      3.575012
      8.52762     -0.25211     16.90561         0.081136      0.316867     -0.145577
      8.06585     -7.25908     16.90561         0.314205     -0.022597      0.017095
      2.22852     -3.35569     16.90561         1.729554     -1.787169      3.529617
      4.02038      0.25211      6.51111        -1.564794     -2.031919     -3.258941
      4.48215      7.25908      6.51111        -1.719390      0.350542      0.151662
     10.31948      3.35569      6.51111        -0.154383      0.240903      0.193464
      8.12797      2.55263      2.67762        -0.316920      0.424704      0.134270
[...]
      4.74879      8.14908      5.19725         0.947911      1.118962     -2.455505
     10.95691      2.67977      5.19725         1.274193      0.742996     -0.071403
      3.11630      0.03803      5.19725         0.241500      0.143306      0.151019
      7.79921     -8.14908     15.59175         0.364495     -0.059636     -0.043897
      9.43170     -0.03803     15.59175        -0.148697      0.355348      0.015921
      1.55470     -2.69281      0.00000         0.284040     -0.201516     -0.122013
      1.55470      2.69281      0.00000         0.217294      0.272361      0.016276
      9.43861      0.00000      0.00000        -0.509474      0.019121     -0.077072
      4.71930     -8.17407     10.39450         0.493769      0.782717      0.260210
      4.71930      8.17407     10.39450         1.177750      0.117024      1.347337
      3.10939      0.00000     10.39450        -0.027990      0.084205      0.180534
      4.71930      8.17407      0.00000        -0.165548     -0.232875     -0.201642
      4.71930     -8.17407      0.00000        -0.195273      0.282361     -0.039884
      3.10939      0.00000      0.00000         1.237064      0.055875      0.001043
      9.43861      0.00000     10.39450         0.614764      0.013391      1.144697
    total drift:                               -0.005551      0.001383     -0.000143

  FREE ENERGIE OF THE ION-ELECTRON SYSTEM (eV)
  free  energy   TOTEN  =     -1117.80677817 eV

  energy  without entropy=    -1116.56407855  energy(sigma->0) =    -1117.18542836